     Program PWSCF v.6.7MaX starts on 28Sep2024 at 21:21: 1

     R & G space division:  proc/nbgrp/npool/nimage =       4
     Waiting for input...
     Reading input from standard input

     Current dimensions of program PWSCF are:
     Max number of different atomic species (ntypx) = 10
     Max number of k-points (npk) =  40000
     Max angular momentum in pseudopotentials (lmaxx) =  3
     Message from routine iosys:
     wrong startingpot: use default (1)

     Message from routine setup:
     using ibrav=0 with symmetry is DISCOURAGED, use correct ibrav instead

     bravais-lattice index     =            0
     lattice parameter (alat)  =      10.5468  a.u.
     unit-cell volume          =    2535.5110 (a.u.)^3
     number of atoms/cell      =           30
     number of atomic types    =            4
     number of electrons       =       294.00
     number of Kohn-Sham states=          200
     kinetic-energy cutoff     =      20.0000  Ry
     charge density cutoff     =      80.0000  Ry
     scf convergence threshold =      1.0E-03
     mixing beta               =       0.2000
     number of iterations used =            8  plain     mixing
     Exchange-correlation=  SLA  PW   PBX  PBC
                           (   1   4   3   4   0   0   0)

     celldm(1)=  10.546849  celldm(2)=   0.000000  celldm(3)=   0.000000
     celldm(4)=   0.000000  celldm(5)=   0.000000  celldm(6)=   0.000000

     crystal axes: (cart. coord. in units of alat)
               a(1) = (   1.000000  -0.000000  -0.000000 )
               a(2) = (  -0.500000   0.866025  -0.000000 )
               a(3) = (   0.000000  -0.000000   2.495552 )

     reciprocal axes: (cart. coord. in units 2 pi/alat)
               b(1) = (  1.000000  0.577350  0.000000 )
               b(2) = (  0.000000  1.154701  0.000000 )
               b(3) = (  0.000000  0.000000  0.400713 )

     PseudoPot. # 1 for O  read from file:
     /home/aldair1809/Programas/QE/q-e-qe-7.3/pseudo/o_pbe_v1.2.uspp.F.UPF
     MD5 check sum: 734c27235a0248c51dbae37a1fbe46ec
     Pseudo is Ultrasoft + core correction, Zval =  6.0
     Generated by new atomic code, or converted to UPF format
     Using radial grid of  737 points,  5 beta functions with:
                l(1) =   0
                l(2) =   0
                l(3) =   1
                l(4) =   1
                l(5) =   2
     Q(r) pseudized with  8 coefficients,  rinner =    0.900   0.900   0.900
                                                       0.900   0.900

     PseudoPot. # 2 for Bi read from file:
     /home/aldair1809/Programas/QE/q-e-qe-7.3/pseudo/bi_pbe_v1.uspp.F.UPF
     MD5 check sum: cceb9f28ec65b6d7ff33140f5b0b1758
     Pseudo is Ultrasoft + core correction, Zval = 15.0
     Generated by new atomic code, or converted to UPF format
     Using radial grid of  899 points,  6 beta functions with:
                l(1) =   0
                l(2) =   0
                l(3) =   1
                l(4) =   1
                l(5) =   2
                l(6) =   2
     Q(r) pseudized with  6 coefficients,  rinner =    1.000   1.000   1.000
                                                       1.000   1.000

     PseudoPot. # 3 for Fe read from file:
     /home/aldair1809/Programas/QE/q-e-qe-7.3/pseudo/fe_pbe_v1.5.uspp.F.UPF
     MD5 check sum: a130daea23fe5165f5d574ae7f82ed95
     Pseudo is Ultrasoft + core correction, Zval = 16.0
     Generated by new atomic code, or converted to UPF format
     Using radial grid of  861 points,  6 beta functions with:
                l(1) =   0
                l(2) =   0
                l(3) =   1
                l(4) =   1
                l(5) =   2
                l(6) =   2
     Q(r) pseudized with  8 coefficients,  rinner =    1.000   1.000   1.000
                                                       1.000   1.000

     PseudoPot. # 4 for Fe read from file:
     /home/aldair1809/Programas/QE/q-e-qe-7.3/pseudo/fe_pbe_v1.5.uspp.F.UPF
     MD5 check sum: a130daea23fe5165f5d574ae7f82ed95
     Pseudo is Ultrasoft + core correction, Zval = 16.0
     Generated by new atomic code, or converted to UPF format
     Using radial grid of  861 points,  6 beta functions with:
                l(1) =   0
                l(2) =   0
                l(3) =   1
                l(4) =   1
                l(5) =   2
                l(6) =   2
     Q(r) pseudized with  8 coefficients,  rinner =    1.000   1.000   1.000
                                                       1.000   1.000

     atomic species   valence    mass     pseudopotential
        O              6.00    15.99940     O ( 1.00)
        Bi            15.00   208.98040     Bi( 1.00)
        Fe1           16.00    55.84500     Fe( 1.00)
        Fe2           16.00    55.84500     Fe( 1.00)

     Starting magnetic structure
     atomic species   magnetization
        O            0.000
        Bi           0.000
        Fe1         -0.800
        Fe2          0.800

      3 Sym. Ops. (no inversion) found

                                    s                        frac. trans.

      isym =  1     identity

 cryst.   s( 1) = (     1          0          0      )
                  (     0          1          0      )
                  (     0          0          1      )

 cart.    s( 1) = (  1.0000000 -0.0000000  0.0000000 )
                  (  0.0000000  1.0000000  0.0000000 )
                  (  0.0000000  0.0000000  1.0000000 )

      isym =  2     120 deg rotation - cryst. axis [0,0,1]

[...]

      isym =  3     120 deg rotation - cryst. axis [0,0,-1]

 cryst.   s( 3) = (    -1         -1          0      )
                  (     1          0          0      )
                  (     0          0          1      )

 cart.    s( 3) = ( -0.5000000  0.8660254  0.0000000 )
                  ( -0.8660254 -0.5000000  0.0000000 )
                  (  0.0000000  0.0000000  1.0000000 )

   Cartesian axes

     site n.     atom                  positions (alat units)
         1           Fe1 tau(   1) = (   0.0000000   0.0000000   1.9384582  )
         2           Fe1 tau(   2) = (  -0.0000005   0.5773506   2.3615556  )
         3           Fe1 tau(   3) = (   0.5000005   0.2886748   1.5200787  )
         4           Fe2 tau(   4) = (   0.5000005   0.2886748   0.2722626  )
         5           Fe2 tau(   5) = (   0.0000000   0.0000000   0.6907071  )
         6           Fe2 tau(   6) = (  -0.0000005   0.5773506   1.1137452  )
         7           Bi  tau(   7) = (   0.5000005   0.2886748   2.0843143  )
         8           Bi  tau(   8) = (  -0.0000005   0.5773506   1.6713980  )
         9           Bi  tau(   9) = (  -0.0000005   0.5773506   0.4235448  )
        10           Bi  tau(  10) = (   0.0000000   0.0000000   0.0002821  )
        11           Bi  tau(  11) = (   0.0000000   0.0000000   1.2481025  )
        12           Bi  tau(  12) = (   0.5000005   0.2886748   0.8364865  )
        13           O   tau(  13) = (  -0.3105904   0.6551932   2.2011299  )
        14           O   tau(  14) = (   0.0878817   0.2694488   2.2011299  )
        15           O   tau(  15) = (   0.2227102   0.8074080   2.2011299  )
        16           O   tau(  16) = (   0.4087504   0.5589755   1.7846473  )
        17           O   tau(  17) = (   0.3115373   0.0745013   1.7846473  )
        18           O   tau(  18) = (   0.7797108   0.2325494   1.7846473  )
        19           O   tau(  19) = (   0.6884743   0.0745026   0.5368244  )
        20           O   tau(  20) = (   0.5912412   0.5589858   0.5368244  )
        21           O   tau(  21) = (   0.2202830   0.2325379   0.5368244  )
        22           O   tau(  22) = (  -0.0823010   0.8482993   0.1166193  )
        23           O   tau(  23) = (  -0.1934983   0.3706010   0.1166193  )
        24           O   tau(  24) = (   0.2757993   0.5131505   0.1166193  )
        25           O   tau(  25) = (   0.1934855   0.3705936   1.3644430  )
        26           O   tau(  26) = (   0.0823138   0.8482919   1.3644430  )
        27           O   tau(  27) = (  -0.2757993   0.5131653   1.3644430  )
        28           O   tau(  28) = (  -0.0878870   0.2694458   0.9533686  )
        29           O   tau(  29) = (   0.3105971   0.6551893   0.9533686  )
        30           O   tau(  30) = (  -0.2227086   0.8074149   0.9533686  )

   Crystallographic axes

     site n.     atom                  positions (cryst. coord.)
         1           Fe1 tau(   1) = (  0.0000000  0.0000000  0.7767652  )
         2           Fe1 tau(   2) = (  0.3333330  0.6666670  0.9463058  )
         3           Fe1 tau(   3) = (  0.6666670  0.3333330  0.6091152  )
         4           Fe2 tau(   4) = (  0.6666670  0.3333330  0.1090991  )
         5           Fe2 tau(   5) = (  0.0000000  0.0000000  0.2767753  )
         6           Fe2 tau(   6) = (  0.3333330  0.6666670  0.4462921  )
         7           Bi  tau(   7) = (  0.6666670  0.3333330  0.8352117  )
         8           Bi  tau(   8) = (  0.3333330  0.6666670  0.6697508  )
         9           Bi  tau(   9) = (  0.3333330  0.6666670  0.1697199  )
        10           Bi  tau(  10) = (  0.0000000  0.0000000  0.0001130  )
        11           Bi  tau(  11) = (  0.0000000  0.0000000  0.5001308  )
        12           Bi  tau(  12) = (  0.6666670  0.3333330  0.3351910  )
        13           O   tau(  13) = (  0.0676856  0.7565520  0.8820212  )
        14           O   tau(  14) = (  0.2434480  0.3111326  0.8820212  )
        15           O   tau(  15) = (  0.6888674  0.9323144  0.8820212  )
        16           O   tau(  16) = (  0.7314750  0.6454493  0.7151312  )
        17           O   tau(  17) = (  0.3545507  0.0860267  0.7151312  )
        18           O   tau(  18) = (  0.9139733  0.2685250  0.7151312  )
        19           O   tau(  19) = (  0.7314884  0.0860282  0.2151125  )
        20           O   tau(  20) = (  0.9139718  0.6454612  0.2151125  )
        21           O   tau(  21) = (  0.3545388  0.2685116  0.2151125  )
        22           O   tau(  22) = (  0.4074649  0.9795317  0.0467309  )
        23           O   tau(  23) = (  0.0204683  0.4279331  0.0467309  )
        24           O   tau(  24) = (  0.5720669  0.5925351  0.0467309  )
        25           O   tau(  25) = (  0.4074478  0.4279246  0.5467499  )
        26           O   tau(  26) = (  0.5720754  0.9795232  0.5467499  )
        27           O   tau(  27) = (  0.0204768  0.5925522  0.5467499  )
        28           O   tau(  28) = (  0.0676775  0.3111292  0.3820271  )
        29           O   tau(  29) = (  0.6888708  0.7565474  0.3820271  )
        30           O   tau(  30) = (  0.2434526  0.9323225  0.3820271  )

     number of k points=     2  Gaussian smearing, width (Ry)=  0.0100
                       cart. coord. in units 2pi/alat
        k(    1) = (   0.0000000   0.0000000   0.0000000), wk =   0.2500000
        k(    2) = (   0.0000000  -0.5773503   0.0000000), wk =   0.7500000

                       cryst. coord.
        k(    1) = (   0.0000000   0.0000000   0.0000000), wk =   0.2500000
        k(    2) = (   0.0000000  -0.5000000   0.0000000), wk =   0.7500000

     Check: negative core charge=   -0.001352
     Generating pointlists ...
     new r_m :   0.1458 (alat units)  1.5374 (a.u.) for type    1
     new r_m :   0.1687 (alat units)  1.7788 (a.u.) for type    2
     new r_m :   0.1458 (alat units)  1.5374 (a.u.) for type    3
     new r_m :   0.1458 (alat units)  1.5374 (a.u.) for type    4

     Initial potential from superposition of free atoms

     starting charge  281.99969, renormalised to  294.00000

     negative rho (up, down):  1.323E-01 1.324E-01
     Starting wfcs are  204 randomized atomic wfcs

     Self-consistent Calculation

     iteration #  1     ecut=    20.00 Ry     beta= 0.20
     CG style diagonalization
     ethr =  1.00E-02,  avg # of iterations =  2.8

     negative rho (up, down):  1.263E-01 1.265E-01

     total energy              =   -3178.67504425 Ry
     estimated scf accuracy    <      25.59953727 Ry

     total magnetization       =     0.00 Bohr mag/cell
     absolute magnetization    =    30.56 Bohr mag/cell

[...]

     iteration # 13     ecut=    20.00 Ry     beta= 0.20
     CG style diagonalization
     c_bands:  1 eigenvalues not converged
     c_bands:  3 eigenvalues not converged
     ethr =  3.86E-05,  avg # of iterations =  3.3

[...]

     iteration # 20     ecut=    20.00 Ry     beta= 0.20
     CG style diagonalization
     c_bands:  2 eigenvalues not converged
     ethr =  1.53E-06,  avg # of iterations =  3.1

[...]

     total energy              =   -3183.98084497 Ry
     estimated scf accuracy    <       0.00118691 Ry

[...]

     iteration # 22     ecut=    20.00 Ry     beta= 0.20
     CG style diagonalization
     ethr =  4.04E-07,  avg # of iterations =  3.4

     negative rho (up, down):  1.216E-01 1.216E-01

     Magnetic moment per site:
     atom:    1    charge:   13.2010    magn:   -3.6748    constr:    0.0000
     atom:    2    charge:   13.2055    magn:   -3.5907    constr:    0.0000
     atom:    3    charge:   13.2087    magn:   -3.5716    constr:    0.0000
     atom:    4    charge:   13.2112    magn:    3.5773    constr:    0.0000
     atom:    5    charge:   13.2044    magn:    3.6723    constr:    0.0000
     atom:    6    charge:   13.1957    magn:    3.5841    constr:    0.0000
     atom:    7    charge:   10.4709    magn:   -0.0196    constr:    0.0000
     atom:    8    charge:   10.4686    magn:   -0.0160    constr:    0.0000
     atom:    9    charge:   10.4680    magn:    0.0158    constr:    0.0000
     atom:   10    charge:   10.4783    magn:   -0.0053    constr:    0.0000
     atom:   11    charge:   10.4685    magn:    0.0054    constr:    0.0000
     atom:   12    charge:   10.4686    magn:    0.0196    constr:    0.0000
     atom:   13    charge:    5.4200    magn:   -0.2285    constr:    0.0000
     atom:   14    charge:    5.4200    magn:   -0.2285    constr:    0.0000
     atom:   15    charge:    5.4200    magn:   -0.2285    constr:    0.0000
     atom:   16    charge:    5.4152    magn:   -0.2409    constr:    0.0000
     atom:   17    charge:    5.4152    magn:   -0.2409    constr:    0.0000
     atom:   18    charge:    5.4152    magn:   -0.2409    constr:    0.0000
     atom:   19    charge:    5.4182    magn:    0.2416    constr:    0.0000
     atom:   20    charge:    5.4182    magn:    0.2416    constr:    0.0000
     atom:   21    charge:    5.4182    magn:    0.2416    constr:    0.0000
     atom:   22    charge:    5.4093    magn:    0.0739    constr:    0.0000
     atom:   23    charge:    5.4093    magn:    0.0739    constr:    0.0000
     atom:   24    charge:    5.4093    magn:    0.0739    constr:    0.0000
     atom:   25    charge:    5.4091    magn:   -0.0739    constr:    0.0000
     atom:   26    charge:    5.4091    magn:   -0.0739    constr:    0.0000
     atom:   27    charge:    5.4091    magn:   -0.0739    constr:    0.0000
     atom:   28    charge:    5.4207    magn:    0.2287    constr:    0.0000
     atom:   29    charge:    5.4207    magn:    0.2287    constr:    0.0000
     atom:   30    charge:    5.4207    magn:    0.2287    constr:    0.0000

     End of self-consistent calculation

 ------ SPIN UP ------------

          k = 0.0000 0.0000 0.0000 (  3823 PWs)   bands (ev):

   -81.5503 -81.3741 -81.3619 -76.7221 -76.6604 -76.6389 -46.5127 -46.4813
   -46.4813 -46.3685 -46.3412 -46.3412 -46.2659 -46.2498 -46.2498 -41.8721
   -41.8249 -41.8248 -41.8040 -41.8040 -41.7763 -41.7450 -41.7295 -41.7295
   -11.1997 -11.1997 -11.1612 -11.1612 -11.1383 -11.1383 -11.1146 -11.0809
   -11.0783 -11.0783 -11.0746 -11.0746 -11.0639 -11.0639 -11.0421 -11.0219
   -11.0133 -11.0133 -10.9999 -10.9999 -10.9977 -10.9977 -10.9911 -10.9820
   -10.9801 -10.9801 -10.9536 -10.9536 -10.9401 -10.9401  -8.3414  -7.9783
    -7.8709  -7.1716  -7.1051  -6.7669  -6.7668  -6.6288  -6.6287  -6.6133
    -6.5367  -6.5366  -6.4291  -6.4289  -6.2603  -6.2603  -6.0838  -6.0838
     0.8386   1.0639   1.1357   1.8756   2.0128   2.7366   4.9894   4.9895
     5.1691   5.4873   5.4873   5.5793   5.6356   5.6356   5.7774   5.8495
     5.8495   5.9915   6.0520   6.0520   6.2318   6.2484   6.2485   6.4273
     6.4274   6.4508   6.5505   6.7518   6.7518   6.9792   6.9792   7.1760
     7.3379   7.6538   7.7036   7.7037   7.9426   7.9427   7.9950   7.9950
     8.0998   8.2079   8.3235   8.3236   8.5218   8.5219   8.5337   8.6629
     8.6701   8.6702   8.7863   8.7863   8.9367   8.9367   9.2556   9.2556
     9.3700   9.3847   9.3847   9.4328   9.4328   9.8444   9.8445  10.0012
    10.0013  10.1795  10.3116  10.4872  10.5443  10.5443  10.5634  10.6868
    10.7680  11.1847  11.1848  11.7702  11.7702  11.9388  11.9388  12.0593
    12.1105  12.1106  12.2257  12.2465  12.7735  12.7735  13.3656  13.3656
    13.9670  13.9670  15.0981  15.2081  15.3261  15.3708  16.3856  16.3856
    16.5188  16.5189  16.5549  16.5549  16.9046  16.9727  17.1596  17.1596
    17.2471  17.2471  17.7253  17.7253  18.2746  19.6720  19.8280  20.0031
    20.7630  20.7630  21.0323  21.1114  21.7799  21.7799  21.9025  21.9026
    22.1565  22.1565  22.9345  23.1241  23.1248  23.1366  23.4524  23.8439

     occupation numbers
     1.0000   1.0000   1.0000   1.0000   1.0000   1.0000   1.0000   1.0000
     1.0000   1.0000   1.0000   1.0000   1.0000   1.0000   1.0000   1.0000
     1.0000   1.0000   1.0000   1.0000   1.0000   1.0000   1.0000   1.0000
     1.0000   1.0000   1.0000   1.0000   1.0000   1.0000   1.0000   1.0000
     1.0000   1.0000   1.0000   1.0000   1.0000   1.0000   1.0000   1.0000
     1.0000   1.0000   1.0000   1.0000   1.0000   1.0000   1.0000   1.0000
     1.0000   1.0000   1.0000   1.0000   1.0000   1.0000   1.0000   1.0000
     1.0000   1.0000   1.0000   1.0000   1.0000   1.0000   1.0000   1.0000
     1.0000   1.0000   1.0000   1.0000   1.0000   1.0000   1.0000   1.0000
     1.0000   1.0000   1.0000   1.0000   1.0000   1.0000   1.0000   1.0000
     1.0000   1.0000   1.0000   1.0000   1.0000   1.0000   1.0000   1.0000
     1.0000   1.0000   1.0000   1.0000   1.0000   1.0000   1.0000   1.0000
     1.0000   1.0000   1.0000   1.0000   1.0000   1.0000   1.0000   1.0000
     1.0000   1.0000   1.0000   1.0000   1.0000   1.0000   1.0000   1.0000
     1.0000   1.0000   1.0000   1.0000   1.0000   1.0000   1.0000   1.0000
     1.0000   1.0000   1.0000   1.0000   1.0000   1.0000   1.0000   1.0000
     1.0000   1.0000   1.0000   1.0000   1.0000   1.0000   1.0000   1.0000
     1.0000   1.0000   1.0000   1.0000   1.0000   1.0000   1.0000   1.0000
     1.0000   0.9991   0.9991   0.0016   0.0016   0.0000   0.0000   0.0000
     0.0000   0.0000   0.0000   0.0000   0.0000   0.0000   0.0000   0.0000
     0.0000   0.0000   0.0000   0.0000   0.0000   0.0000   0.0000   0.0000
     0.0000   0.0000   0.0000   0.0000   0.0000   0.0000   0.0000   0.0000
     0.0000   0.0000   0.0000   0.0000   0.0000   0.0000   0.0000   0.0000
     0.0000   0.0000   0.0000   0.0000   0.0000   0.0000   0.0000   0.0000
     0.0000   0.0000   0.0000   0.0000   0.0000   0.0000   0.0000   0.0000

[...]

 ------ SPIN DOWN ----------

[...]

          k = 0.0000-0.5774 0.0000 (  3794 PWs)   bands (ev):

   -81.5277 -81.3593 -81.3530 -76.7198 -76.6445 -76.6396 -46.4997 -46.4862
   -46.3746 -46.3486 -46.3299 -46.2916 -46.2387 -46.2101 -46.1439 -41.8854
   -41.8427 -41.7959 -41.7859 -41.7668 -41.7603 -41.7141 -41.6551 -41.6253
   -11.1971 -11.1611 -11.1423 -11.1368 -11.1296 -11.1197 -11.1116 -11.0977
   -11.0783 -11.0759 -11.0659 -11.0602 -11.0515 -11.0472 -11.0403 -11.0335
   -11.0234 -11.0184 -11.0122 -11.0071 -11.0041 -11.0025 -10.9966 -10.9898
   -10.9839 -10.9713 -10.9645 -10.9597 -10.9576 -10.9406  -7.7320  -7.6872
    -7.5146  -7.3611  -7.3019  -6.9823  -6.9455  -6.8833  -6.7389  -6.6537
    -6.6240  -6.6012  -6.5182  -6.4609  -6.3318  -6.2927  -6.1903  -6.1026
     0.9935   1.2159   1.2387   1.5180   1.5800   1.7767   5.1505   5.4524
     5.4670   5.6147   5.7706   5.8043   5.8597   5.9027   5.9229   6.0930
     6.1091   6.1639   6.2828   6.3399   6.5078   6.6207   6.7063   6.7505
     6.7712   6.8639   7.0264   7.0709   7.1876   7.2432   7.2885   7.4417
     7.4943   7.5400   7.6914   7.7668   7.8055   7.8651   7.8986   8.0096
     8.0535   8.1393   8.2082   8.2396   8.2962   8.3772   8.4791   8.5246
     8.5818   8.6787   8.7221   8.7931   8.9735   9.0972   9.1181   9.1796
     9.2118   9.2278   9.2978   9.3712   9.4678   9.4889   9.5598   9.6904
     9.9988  10.1424  10.1900  10.2944  10.3672  10.5413  10.6505  10.8583
    10.8928  10.9783  11.1869  11.7946  11.9242  11.9611  12.0537  12.1370
    12.1530  12.3038  12.3958  12.4931  12.8082  12.9659  13.2587  13.3499
    13.3763  13.9173  14.4665  15.0987  15.1479  15.3676  15.4428  15.4679
    15.4994  15.5665  15.6728  16.7025  16.7444  16.8297  16.8854  17.0061
    17.0683  17.1445  17.1988  17.2771  20.0925  20.2563  20.5389  21.0516
    21.1843  21.2685  21.7780  21.9352  22.0580  22.3766  22.4183  22.4481
    22.5707  22.6413  22.9841  23.0436  23.2563  23.3255  23.3819  23.4342

     occupation numbers
     1.0000   1.0000   1.0000   1.0000   1.0000   1.0000   1.0000   1.0000
     1.0000   1.0000   1.0000   1.0000   1.0000   1.0000   1.0000   1.0000
     1.0000   1.0000   1.0000   1.0000   1.0000   1.0000   1.0000   1.0000
     1.0000   1.0000   1.0000   1.0000   1.0000   1.0000   1.0000   1.0000
     1.0000   1.0000   1.0000   1.0000   1.0000   1.0000   1.0000   1.0000
     1.0000   1.0000   1.0000   1.0000   1.0000   1.0000   1.0000   1.0000
     1.0000   1.0000   1.0000   1.0000   1.0000   1.0000   1.0000   1.0000
     1.0000   1.0000   1.0000   1.0000   1.0000   1.0000   1.0000   1.0000
     1.0000   1.0000   1.0000   1.0000   1.0000   1.0000   1.0000   1.0000
     1.0000   1.0000   1.0000   1.0000   1.0000   1.0000   1.0000   1.0000
     1.0000   1.0000   1.0000   1.0000   1.0000   1.0000   1.0000   1.0000
     1.0000   1.0000   1.0000   1.0000   1.0000   1.0000   1.0000   1.0000
     1.0000   1.0000   1.0000   1.0000   1.0000   1.0000   1.0000   1.0000
     1.0000   1.0000   1.0000   1.0000   1.0000   1.0000   1.0000   1.0000
     1.0000   1.0000   1.0000   1.0000   1.0000   1.0000   1.0000   1.0000
     1.0000   1.0000   1.0000   1.0000   1.0000   1.0000   1.0000   1.0000
     1.0000   1.0000   1.0000   1.0000   1.0000   1.0000   1.0000   1.0000
     1.0000   1.0000   1.0000   1.0000   1.0000   1.0000   1.0000   1.0000
     1.0000   1.0000   0.9991   0.0007   0.0000   0.0000   0.0000   0.0000
     0.0000   0.0000   0.0000   0.0000   0.0000   0.0000   0.0000   0.0000
     0.0000   0.0000   0.0000   0.0000   0.0000   0.0000   0.0000   0.0000
     0.0000   0.0000   0.0000   0.0000   0.0000   0.0000   0.0000   0.0000
     0.0000   0.0000   0.0000   0.0000   0.0000   0.0000   0.0000   0.0000
     0.0000   0.0000   0.0000   0.0000   0.0000   0.0000   0.0000   0.0000
     0.0000   0.0000   0.0000   0.0000   0.0000   0.0000   0.0000   0.0000

     the Fermi energy is    11.4857 ev

!    total energy              =   -3183.98278403 Ry
     estimated scf accuracy    <       0.00038491 Ry
     smearing contrib. (-TS)   =      -0.00011120 Ry
     internal energy E=F+TS    =   -3183.98267283 Ry

     The total energy is F=E-TS. E is the sum of the following terms:
     one-electron contribution =   -1289.69553870 Ry
     hartree contribution      =     825.29880041 Ry
     xc contribution           =    -691.93680508 Ry
     ewald contribution        =   -2027.64912945 Ry

     total magnetization       =     0.00 Bohr mag/cell
     absolute magnetization    =    27.59 Bohr mag/cell

     convergence has been achieved in  22 iterations

     Writing output data file /home/aldair1809/Documentos/QE/4BFO/UHUBBARD/temp/pseudo_o_pbe_v1.2.uspp.F.UPF_ecutwfc_20.in/bifeo3-scf.save/

     General routines

     Parallel routines

   This run was terminated on:  21:29:35  28Sep2024

   JOB DONE.