     Program PWSCF v.6.7MaX starts on 16Dec2024 at  7:32:24

     R & G space division:  proc/nbgrp/npool/nimage =       6
     Reading input from scf.bifeo3.in

     Current dimensions of program PWSCF are:
     Max number of different atomic species (ntypx) = 10
     Max number of k-points (npk) =  40000
     Max angular momentum in pseudopotentials (lmaxx) =  3
     Message from routine iosys:
     wrong startingpot: use default (1)

     bravais-lattice index     =            4
     lattice parameter (alat)  =      10.4357  a.u.
     unit-cell volume          =    2419.7788 (a.u.)^3
     number of atoms/cell      =           30
     number of atomic types    =            4
     number of electrons       =       294.00
     number of Kohn-Sham states=          176
     kinetic-energy cutoff     =      40.0000  Ry
     charge density cutoff     =     320.0000  Ry
     scf convergence threshold =      1.0E-07
     mixing beta               =       0.4000
     number of iterations used =            8  plain     mixing
     Exchange-correlation=  SLA  PW   PBX  PBC
                           (   1   4   3   4   0   0   0)

     celldm(1)=  10.435734  celldm(2)=   0.000000  celldm(3)=   2.458533
     celldm(4)=   0.000000  celldm(5)=   0.000000  celldm(6)=   0.000000

     crystal axes: (cart. coord. in units of alat)
               a(1) = (   1.000000   0.000000   0.000000 )
               a(2) = (  -0.500000   0.866025   0.000000 )
               a(3) = (   0.000000   0.000000   2.458533 )

     reciprocal axes: (cart. coord. in units 2 pi/alat)
               b(1) = (  1.000000  0.577350 -0.000000 )
               b(2) = (  0.000000  1.154701  0.000000 )
               b(3) = (  0.000000 -0.000000  0.406747 )

     PseudoPot. # 1 for O  read from file:
     /home/aldair1809/Programas/QE/q-e-qe-7.3/pseudo/o_pbe_v1.2.uspp.F.UPF
     MD5 check sum: 734c27235a0248c51dbae37a1fbe46ec
     Pseudo is Ultrasoft + core correction, Zval =  6.0
     Generated by new atomic code, or converted to UPF format
     Using radial grid of  737 points,  5 beta functions with:
                l(1) =   0
                l(2) =   0
                l(3) =   1
                l(4) =   1
                l(5) =   2
     Q(r) pseudized with  8 coefficients,  rinner =    0.900   0.900   0.900
                                                       0.900   0.900

     PseudoPot. # 2 for Bi read from file:
     /home/aldair1809/Programas/QE/q-e-qe-7.3/pseudo/bi_pbe_v1.uspp.F.UPF
     MD5 check sum: cceb9f28ec65b6d7ff33140f5b0b1758
     Pseudo is Ultrasoft + core correction, Zval = 15.0
     Generated by new atomic code, or converted to UPF format
     Using radial grid of  899 points,  6 beta functions with:
                l(1) =   0
                l(2) =   0
                l(3) =   1
                l(4) =   1
                l(5) =   2
                l(6) =   2
     Q(r) pseudized with  6 coefficients,  rinner =    1.000   1.000   1.000
                                                       1.000   1.000

     PseudoPot. # 3 for Fe read from file:
     /home/aldair1809/Programas/QE/q-e-qe-7.3/pseudo/fe_pbe_v1.5.uspp.F.UPF
     MD5 check sum: a130daea23fe5165f5d574ae7f82ed95
     Pseudo is Ultrasoft + core correction, Zval = 16.0
     Generated by new atomic code, or converted to UPF format
     Using radial grid of  861 points,  6 beta functions with:
                l(1) =   0
                l(2) =   0
                l(3) =   1
                l(4) =   1
                l(5) =   2
                l(6) =   2
     Q(r) pseudized with  8 coefficients,  rinner =    1.000   1.000   1.000
                                                       1.000   1.000

     PseudoPot. # 4 for Fe read from file:
     /home/aldair1809/Programas/QE/q-e-qe-7.3/pseudo/fe_pbe_v1.5.uspp.F.UPF
     MD5 check sum: a130daea23fe5165f5d574ae7f82ed95
     Pseudo is Ultrasoft + core correction, Zval = 16.0
     Generated by new atomic code, or converted to UPF format
     Using radial grid of  861 points,  6 beta functions with:
                l(1) =   0
                l(2) =   0
                l(3) =   1
                l(4) =   1
                l(5) =   2
                l(6) =   2
     Q(r) pseudized with  8 coefficients,  rinner =    1.000   1.000   1.000
                                                       1.000   1.000

     atomic species   valence    mass     pseudopotential
        O              6.00    15.99940     O ( 1.00)
        Bi            15.00   208.98040     Bi( 1.00)
        Fe1           16.00    55.84500     Fe( 1.00)
        Fe2           16.00    55.84500     Fe( 1.00)

     Starting magnetic structure
     atomic species   magnetization
        O            0.000
        Bi           0.000
        Fe1         -0.800
        Fe2          0.800

     Simplified LDA+U calculation (l_max = 2) with parameters (eV):
     atomic species    L          U    alpha       J0     beta
        Fe1            2     4.1000   0.0000   0.0000   0.0000
        Fe2            2     4.1000   0.0000   0.0000   0.0000

      3 Sym. Ops. (no inversion) found

                                    s                        frac. trans.

      isym =  1     identity

 cryst.   s( 1) = (     1          0          0      )
                  (     0          1          0      )
                  (     0          0          1      )

 cart.    s( 1) = (  1.0000000  0.0000000  0.0000000 )
                  (  0.0000000  1.0000000  0.0000000 )
                  (  0.0000000  0.0000000  1.0000000 )

      isym =  2     120 deg rotation - cryst. axis [0,0,1]

[...]

      isym =  3     120 deg rotation - cryst. axis [0,0,-1]

 cryst.   s( 3) = (    -1         -1          0      )
                  (     1          0          0      )
                  (     0          0          1      )

 cart.    s( 3) = ( -0.5000000  0.8660254  0.0000000 )
                  ( -0.8660254 -0.5000000  0.0000000 )
                  (  0.0000000  0.0000000  1.0000000 )

     point group C_3 (3)
     there are  3 classes
     the character table:

       E     C3    C3^2
A      1.00  1.00  1.00
E      1.00 -0.50 -0.50
E*     1.00 -0.50 -0.50
     imaginary part
A      0.00  0.00  0.00
E      0.00  0.87 -0.87
E*     0.00 -0.87  0.87

     the symmetry operations in each class and the name of the first element:

     E        1
          identity
     C3       2
          120 deg rotation - cryst. axis [0,0,1]
     C3^2     3
          120 deg rotation - cryst. axis [0,0,-1]

   Cartesian axes

     site n.     atom                  positions (alat units)
         1           Fe2 tau(   1) = (   0.0000000   0.0000000   1.9108937  )
         2           Fe1 tau(   2) = (  -0.0000005   0.5773506   2.3205983  )
         3           Fe1 tau(   3) = (   0.5000005   0.2886748   1.5012165  )
         4           Fe2 tau(   4) = (   0.5000005   0.2886748   0.2719883  )
         5           Fe1 tau(   5) = (   0.0000000   0.0000000   0.6816731  )
         6           Fe2 tau(   6) = (  -0.0000005   0.5773506   1.0913263  )
         7           Bi  tau(   7) = (   0.5000005   0.2886748   2.0662347  )
         8           Bi  tau(   8) = (  -0.0000005   0.5773506   1.6560675  )
         9           Bi  tau(   9) = (  -0.0000005   0.5773506   0.4267941  )
        10           Bi  tau(  10) = (   0.0000000   0.0000000   0.0172186  )
        11           Bi  tau(  11) = (   0.0000000   0.0000000   1.2465036  )
        12           Bi  tau(  12) = (   0.5000005   0.2886748   0.8369763  )
        13           O   tau(  13) = (  -0.3005870   0.6647756   2.1624421  )
        14           O   tau(  14) = (   0.0745814   0.2733208   2.1624421  )
        15           O   tau(  15) = (   0.2260070   0.7939536   2.1624421  )
        16           O   tau(  16) = (   0.4254330   0.5619882   1.7527437  )
        17           O   tau(  17) = (   0.3005869   0.0874426   1.7527437  )
        18           O   tau(  18) = (   0.7739786   0.2165955   1.7527437  )
        19           O   tau(  19) = (   0.6994059   0.0874362   0.5234995  )
        20           O   tau(  20) = (   0.5745746   0.5619860   0.5234995  )
        21           O   tau(  21) = (   0.2260180   0.2166040   0.5234995  )
        22           O   tau(  22) = (  -0.0745661   0.8507653   0.1135732  )
        23           O   tau(  23) = (  -0.1995013   0.3760667   0.1135732  )
        24           O   tau(  24) = (   0.2740674   0.5052189   0.1135732  )
        25           O   tau(  25) = (   0.1994921   0.3760730   1.3428354  )
        26           O   tau(  26) = (   0.0745652   0.8507542   1.3428354  )
        27           O   tau(  27) = (  -0.2740573   0.5052237   1.3428354  )
        28           O   tau(  28) = (  -0.0745884   0.2733113   0.9331975  )
        29           O   tau(  29) = (   0.3006002   0.6647734   0.9331975  )
        30           O   tau(  30) = (  -0.2260103   0.7939652   0.9331975  )

   Crystallographic axes

     site n.     atom                  positions (cryst. coord.)
         1           Fe2 tau(   1) = (  0.0000000  0.0000000  0.7772496  )
         2           Fe1 tau(   2) = (  0.3333330  0.6666670  0.9438955  )
         3           Fe1 tau(   3) = (  0.6666670  0.3333330  0.6106148  )
         4           Fe2 tau(   4) = (  0.6666670  0.3333330  0.1106303  )
         5           Fe1 tau(   5) = (  0.0000000  0.0000000  0.2772683  )
         6           Fe2 tau(   6) = (  0.3333330  0.6666670  0.4438933  )
         7           Bi  tau(   7) = (  0.6666670  0.3333330  0.8404340  )
         8           Bi  tau(   8) = (  0.3333330  0.6666670  0.6735999  )
         9           Bi  tau(   9) = (  0.3333330  0.6666670  0.1735971  )
        10           Bi  tau(  10) = (  0.0000000  0.0000000  0.0070036  )
        11           Bi  tau(  11) = (  0.0000000  0.0000000  0.5070111  )
        12           Bi  tau(  12) = (  0.6666670  0.3333330  0.3404373  )
        13           O   tau(  13) = (  0.0832214  0.7676167  0.8795660  )
        14           O   tau(  14) = (  0.2323833  0.3156037  0.8795660  )
        15           O   tau(  15) = (  0.6843963  0.9167786  0.8795660  )
        16           O   tau(  16) = (  0.7498970  0.6489281  0.7129226  )
        17           O   tau(  17) = (  0.3510719  0.1009700  0.7129226  )
        18           O   tau(  18) = (  0.8990300  0.2501030  0.7129226  )
        19           O   tau(  19) = (  0.7498872  0.1009626  0.2129316  )
        20           O   tau(  20) = (  0.8990374  0.6489256  0.2129316  )
        21           O   tau(  21) = (  0.3510744  0.2501128  0.2129316  )
        22           O   tau(  22) = (  0.4166235  0.9823791  0.0461955  )
        23           O   tau(  23) = (  0.0176209  0.4342444  0.0461955  )
        24           O   tau(  24) = (  0.5657556  0.5833765  0.0461955  )
        25           O   tau(  25) = (  0.4166179  0.4342517  0.5461938  )
        26           O   tau(  26) = (  0.5657483  0.9823663  0.5461938  )
        27           O   tau(  27) = (  0.0176337  0.5833821  0.5461938  )
        28           O   tau(  28) = (  0.0832080  0.3155927  0.3795749  )
[...]
     estimated scf accuracy    <       0.00000033 Ry

[...]

     iteration # 42     ecut=    40.00 Ry     beta= 0.40
     CG style diagonalization
     ethr =  1.03E-10,  avg # of iterations =  3.2
 --- enter write_ns ---
 LDA+U parameters:
U( 3)     =  4.10000000
U( 4)     =  4.10000000
atom    1   Tr[ns(na)] (up, down, total) =   4.97542  1.04904  6.02446
   spin  1
    eigenvalues:
  0.992  0.992  0.997  0.997  0.997
    eigenvectors:
  0.000  0.000  1.000  0.000  0.000
  0.000  0.541  0.000  0.014  0.444
  0.541  0.000  0.000  0.444  0.014
  0.166  0.293  0.000  0.124  0.418
  0.293  0.166  0.000  0.418  0.124
    occupations:
  0.997 -0.000 -0.000 -0.000 -0.000
 -0.000  0.995 -0.000 -0.002 -0.002
 -0.000 -0.000  0.995 -0.002  0.002
 -0.000 -0.002 -0.002  0.995  0.000
 -0.000 -0.002  0.002  0.000  0.995
   spin  2
    eigenvalues:
  0.122  0.122  0.125  0.341  0.341
    eigenvectors:
  0.000  0.000  1.000  0.000  0.000
  0.030  0.365  0.000  0.005  0.600
  0.365  0.030  0.000  0.600  0.005
  0.157  0.448  0.000  0.174  0.221
  0.448  0.157  0.000  0.221  0.174
    occupations:
  0.125 -0.000 -0.000 -0.000 -0.000
 -0.000  0.254 -0.000  0.073  0.078
 -0.000 -0.000  0.254  0.078 -0.073
 -0.000  0.073  0.078  0.208  0.000
 -0.000  0.078 -0.073  0.000  0.208
atomic mag. moment =   3.92637
atom    2   Tr[ns(na)] (up, down, total) =   1.04911  4.97544  6.02454
   spin  1
    eigenvalues:
  0.122  0.122  0.125  0.341  0.341
    eigenvectors:
  0.000  0.000  1.000  0.000  0.000
  0.317  0.078  0.000  0.441  0.164
  0.078  0.317  0.000  0.164  0.441
  0.051  0.553  0.000  0.017  0.378
  0.553  0.051  0.000  0.378  0.017
    occupations:
  0.125 -0.000 -0.000 -0.000 -0.000
 -0.000  0.254 -0.000 -0.073  0.078
 -0.000 -0.000  0.254  0.078  0.073
 -0.000 -0.073  0.078  0.208  0.000
 -0.000  0.078  0.073  0.000  0.208
   spin  2
    eigenvalues:
  0.992  0.992  0.997  0.997  0.997
    eigenvectors:
  0.000  0.000  1.000  0.000  0.000
  0.360  0.182  0.000  0.284  0.175
  0.182  0.360  0.000  0.175  0.284
  0.035  0.424  0.000  0.029  0.512
  0.424  0.035  0.000  0.512  0.029
    occupations:
  0.997 -0.000 -0.000 -0.000 -0.000
 -0.000  0.995 -0.000  0.002 -0.002
 -0.000 -0.000  0.995 -0.002 -0.002
 -0.000  0.002 -0.002  0.995  0.000
 -0.000 -0.002 -0.002  0.000  0.995
atomic mag. moment =  -3.92633
atom    3   Tr[ns(na)] (up, down, total) =   1.04893  4.97543  6.02436
   spin  1
    eigenvalues:
  0.122  0.122  0.124  0.341  0.341
    eigenvectors:
  0.000  0.000  1.000  0.000  0.000
  0.316  0.078  0.000  0.441  0.165
  0.078  0.316  0.000  0.165  0.441
  0.051  0.554  0.000  0.017  0.378
  0.554  0.051  0.000  0.378  0.017
    occupations:
  0.124 -0.000 -0.000 -0.000 -0.000
 -0.000  0.254 -0.000 -0.074  0.078
 -0.000 -0.000  0.254  0.078  0.074
 -0.000 -0.074  0.078  0.208  0.000
 -0.000  0.078  0.074  0.000  0.208
   spin  2
    eigenvalues:
  0.992  0.992  0.997  0.997  0.997
    eigenvectors:
  0.000  0.000  1.000  0.000  0.000
  0.361  0.182  0.000  0.283  0.174
  0.182  0.361  0.000  0.174  0.283
  0.035  0.422  0.000  0.029  0.514
  0.422  0.035  0.000  0.514  0.029
    occupations:
  0.997 -0.000 -0.000 -0.000 -0.000
 -0.000  0.994 -0.000  0.002 -0.002
 -0.000 -0.000  0.994 -0.002 -0.002
 -0.000  0.002 -0.002  0.995  0.000
 -0.000 -0.002 -0.002  0.000  0.995
atomic mag. moment =  -3.92650
atom    4   Tr[ns(na)] (up, down, total) =   4.97544  1.04900  6.02444
   spin  1
    eigenvalues:
  0.992  0.992  0.997  0.997  0.997
    eigenvectors:
  0.000  0.000  1.000  0.000  0.000
  0.000  0.542  0.000  0.014  0.444
  0.542  0.000  0.000  0.444  0.014
  0.165  0.292  0.000  0.124  0.419
  0.292  0.165  0.000  0.419  0.124
    occupations:
  0.997 -0.000 -0.000 -0.000 -0.000
 -0.000  0.994 -0.000 -0.002 -0.002
 -0.000 -0.000  0.994 -0.002  0.002
 -0.000 -0.002 -0.002  0.995  0.000
 -0.000 -0.002  0.002  0.000  0.995
   spin  2
    eigenvalues:
  0.122  0.122  0.124  0.341  0.341
    eigenvectors:
  0.000  0.000  1.000  0.000  0.000
  0.030  0.364  0.000  0.005  0.601
  0.364  0.030  0.000  0.601  0.005
  0.157  0.449  0.000  0.174  0.220
  0.449  0.157  0.000  0.220  0.174
    occupations:
  0.124 -0.000 -0.000 -0.000 -0.000
 -0.000  0.254 -0.000  0.074  0.078
 -0.000 -0.000  0.254  0.078 -0.074
 -0.000  0.074  0.078  0.208  0.000
 -0.000  0.078 -0.074  0.000  0.208
atomic mag. moment =   3.92644
atom    5   Tr[ns(na)] (up, down, total) =   1.04906  4.97541  6.02447
   spin  1
    eigenvalues:
  0.122  0.122  0.125  0.341  0.341
    eigenvectors:
  0.000  0.000  1.000  0.000  0.000
  0.317  0.079  0.000  0.440  0.165
  0.079  0.317  0.000  0.165  0.440
  0.051  0.554  0.000  0.017  0.378
  0.554  0.051  0.000  0.378  0.017
    occupations:
  0.125 -0.000 -0.000 -0.000 -0.000
 -0.000  0.254 -0.000 -0.073  0.078
 -0.000 -0.000  0.254  0.078  0.073
 -0.000 -0.073  0.078  0.208  0.000
 -0.000  0.078  0.073  0.000  0.208
   spin  2
    eigenvalues:
  0.992  0.992  0.997  0.997  0.997
    eigenvectors:
  0.000  0.000  1.000  0.000  0.000
  0.360  0.182  0.000  0.284  0.174
  0.182  0.360  0.000  0.174  0.284
  0.035  0.423  0.000  0.029  0.513
  0.423  0.035  0.000  0.513  0.029
    occupations:
  0.997 -0.000 -0.000 -0.000 -0.000
 -0.000  0.994 -0.000  0.002 -0.002
 -0.000 -0.000  0.994 -0.002 -0.002
 -0.000  0.002 -0.002  0.995  0.000
 -0.000 -0.002 -0.002  0.000  0.995
atomic mag. moment =  -3.92636
atom    6   Tr[ns(na)] (up, down, total) =   4.97544  1.04916  6.02460
   spin  1
    eigenvalues:
  0.992  0.992  0.997  0.997  0.997
    eigenvectors:
  0.000  0.000  1.000  0.000  0.000
  0.000  0.541  0.000  0.014  0.445
  0.541  0.000  0.000  0.445  0.014
  0.166  0.293  0.000  0.124  0.417
  0.293  0.166  0.000  0.417  0.124
    occupations:
  0.997 -0.000 -0.000 -0.000 -0.000
 -0.000  0.995 -0.000 -0.002 -0.002
 -0.000 -0.000  0.995 -0.002  0.002
 -0.000 -0.002 -0.002  0.995  0.000
 -0.000 -0.002  0.002  0.000  0.995
   spin  2
    eigenvalues:
  0.122  0.122  0.125  0.341  0.341
    eigenvectors:
  0.000  0.000  1.000  0.000  0.000
  0.030  0.365  0.000  0.005  0.600
  0.365  0.030  0.000  0.600  0.005
  0.157  0.448  0.000  0.174  0.221
  0.448  0.157  0.000  0.221  0.174
    occupations:
  0.125 -0.000 -0.000 -0.000 -0.000
 -0.000  0.254 -0.000  0.073  0.078
 -0.000 -0.000  0.254  0.078 -0.073
 -0.000  0.073  0.078  0.208  0.000
 -0.000  0.078 -0.073  0.000  0.208
atomic mag. moment =   3.92628
N of occupied +U levels =   36.146867
 --- exit write_ns ---

     negative rho (up, down):  1.205E-01 1.205E-01
 --- in v_hubbard ---
Hubbard energy    0.7199

     Magnetic moment per site:
     atom:    1    charge:   12.8825    magn:    3.7855    constr:    0.0000
     atom:    2    charge:   12.8826    magn:   -3.7855    constr:    0.0000
     atom:    3    charge:   12.8825    magn:   -3.7856    constr:    0.0000
     atom:    4    charge:   12.8826    magn:    3.7856    constr:    0.0000
     atom:    5    charge:   12.8826    magn:   -3.7855    constr:    0.0000
     atom:    6    charge:   12.8826    magn:    3.7854    constr:    0.0000
     atom:    7    charge:   10.6653    magn:    0.0003    constr:    0.0000
     atom:    8    charge:   10.6654    magn:   -0.0003    constr:    0.0000
     atom:    9    charge:   10.6654    magn:    0.0003    constr:    0.0000
     atom:   10    charge:   10.6654    magn:   -0.0003    constr:    0.0000
     atom:   11    charge:   10.6654    magn:    0.0003    constr:    0.0000
     atom:   12    charge:   10.6653    magn:   -0.0003    constr:    0.0000
     atom:   13    charge:    5.3422    magn:   -0.0469    constr:    0.0000
     atom:   14    charge:    5.3422    magn:   -0.0469    constr:    0.0000
     atom:   15    charge:    5.3422    magn:   -0.0469    constr:    0.0000
     atom:   16    charge:    5.3420    magn:    0.0468    constr:    0.0000
     atom:   17    charge:    5.3420    magn:    0.0468    constr:    0.0000
     atom:   18    charge:    5.3420    magn:    0.0468    constr:    0.0000
     atom:   19    charge:    5.3420    magn:   -0.0468    constr:    0.0000
     atom:   20    charge:    5.3420    magn:   -0.0468    constr:    0.0000
     atom:   21    charge:    5.3420    magn:   -0.0468    constr:    0.0000
     atom:   22    charge:    5.3421    magn:    0.0468    constr:    0.0000
     atom:   23    charge:    5.3421    magn:    0.0468    constr:    0.0000
     atom:   24    charge:    5.3421    magn:    0.0468    constr:    0.0000
     atom:   25    charge:    5.3421    magn:   -0.0467    constr:    0.0000
     atom:   26    charge:    5.3421    magn:   -0.0467    constr:    0.0000
     atom:   27    charge:    5.3421    magn:   -0.0467    constr:    0.0000
     atom:   28    charge:    5.3422    magn:    0.0469    constr:    0.0000
     atom:   29    charge:    5.3422    magn:    0.0469    constr:    0.0000
     atom:   30    charge:    5.3422    magn:    0.0469    constr:    0.0000

     End of self-consistent calculation

 ------ SPIN UP ------------

          k = 0.0000 0.0000 0.0000 ( 10359 PWs)   bands (ev):

   -78.9422 -78.9421 -78.9409 -73.8034 -73.8024 -73.8020 -44.9604 -44.9599
   -44.9589 -44.8862 -44.8862 -44.8860 -44.8859 -44.8848 -44.8847 -39.9512
   -39.9498 -39.9496 -39.8972 -39.8972 -39.8964 -39.8964 -39.8958 -39.8958
   -10.4569 -10.4569 -10.4158 -10.4158 -10.4147 -10.4146 -10.3845 -10.3649
   -10.3649 -10.3629 -10.3626 -10.3586 -10.3586 -10.3581 -10.3581 -10.3185
   -10.3185 -10.3108 -10.3108 -10.3105 -10.3105 -10.2989 -10.2989 -10.2975
   -10.2855 -10.2855 -10.2854 -10.2854 -10.2586 -10.2586  -7.1685  -6.7533
    -6.7501  -5.7914  -5.7898  -5.2870  -5.2869  -5.2800  -5.2799  -5.2333
    -5.2236  -5.2235  -5.0619  -5.0618  -4.9949  -4.9948  -4.9478  -4.9478
     1.8274   1.9011   1.9018   2.6720   2.6735   3.5309   4.7124   4.7124
     4.8788   4.8788   4.9034   4.9034   5.1640   5.1640   5.1748   5.1748
     5.2182   5.2519   5.2519   5.3345   5.3354   5.6192   6.4024   6.4046
     6.7270   6.7270   6.8627   6.9806   6.9806   7.0023   7.0023   7.5609
     7.5615   7.5785   7.5785   7.7110   7.7111   7.8006   8.1762   8.1762
     8.5378   8.5405   8.9429   8.9429   9.2608   9.2609   9.4158   9.4158
     9.4943   9.4944   9.5958   9.5959   9.6129   9.6136  10.2383  10.2383
    10.2893  10.2894  10.3466  10.3467  10.3553  10.6607  10.6607  10.8460
    11.0864  11.0864  11.1349  11.1632  11.1643  11.3675  11.3675  11.5027
    11.5036  11.5568  11.5569  14.1155  14.1173  14.2615  14.2615  14.2750
    14.2990  14.2990  14.3640  14.3640  15.0844  15.0844  15.1958  15.1958
    15.3916  15.3916  15.8699  15.8715  16.1702  16.1718  17.3780  17.3782
    17.4020  17.4021  17.4817  17.4817  17.8861  17.9158  17.9379  17.9539

     occupation numbers
     1.0000   1.0000   1.0000   1.0000   1.0000   1.0000   1.0000   1.0000
     1.0000   1.0000   1.0000   1.0000   1.0000   1.0000   1.0000   1.0000
     1.0000   1.0000   1.0000   1.0000   1.0000   1.0000   1.0000   1.0000
     1.0000   1.0000   1.0000   1.0000   1.0000   1.0000   1.0000   1.0000
     1.0000   1.0000   1.0000   1.0000   1.0000   1.0000   1.0000   1.0000
     1.0000   1.0000   1.0000   1.0000   1.0000   1.0000   1.0000   1.0000
     1.0000   1.0000   1.0000   1.0000   1.0000   1.0000   1.0000   1.0000
     1.0000   1.0000   1.0000   1.0000   1.0000   1.0000   1.0000   1.0000
     1.0000   1.0000   1.0000   1.0000   1.0000   1.0000   1.0000   1.0000
     1.0000   1.0000   1.0000   1.0000   1.0000   1.0000   1.0000   1.0000
     1.0000   1.0000   1.0000   1.0000   1.0000   1.0000   1.0000   1.0000
     1.0000   1.0000   1.0000   1.0000   1.0000   1.0000   1.0000   1.0000
     1.0000   1.0000   1.0000   1.0000   1.0000   1.0000   1.0000   1.0000
     1.0000   1.0000   1.0000   1.0000   1.0000   1.0000   1.0000   1.0000
     1.0000   1.0000   1.0000   1.0000   1.0000   1.0000   1.0000   1.0000
     1.0000   1.0000   1.0000   1.0000   1.0000   1.0000   1.0000   1.0000
     1.0000   1.0000   1.0000   1.0000   1.0000   1.0000   1.0000   1.0000
     1.0000   1.0000   1.0000   1.0000   1.0000   1.0000   1.0000   1.0000
     1.0000   1.0000   1.0000  -0.0000  -0.0000  -0.0000  -0.0000  -0.0000
    -0.0000  -0.0000  -0.0000  -0.0000  -0.0000  -0.0000  -0.0000  -0.0000
    -0.0000  -0.0000  -0.0000  -0.0000  -0.0000  -0.0000  -0.0000  -0.0000
    -0.0000  -0.0000  -0.0000  -0.0000  -0.0000  -0.0000  -0.0000  -0.0000

[...]

 ------ SPIN DOWN ----------

[...]

          k = 0.3333 0.5774-0.2034 ( 10302 PWs)   bands (ev):

   -78.9420 -78.9412 -78.9408 -73.8034 -73.8032 -73.8018 -44.9602 -44.9589
   -44.9588 -44.8859 -44.8859 -44.8853 -44.8853 -44.8847 -44.8847 -39.9512
   -39.9504 -39.9494 -39.8972 -39.8972 -39.8971 -39.8971 -39.8956 -39.8956
   -10.4143 -10.4140 -10.4138 -10.4135 -10.4134 -10.4132 -10.3608 -10.3608
   -10.3606 -10.3581 -10.3581 -10.3580 -10.3263 -10.3261 -10.3261 -10.3257
   -10.3257 -10.3257 -10.3137 -10.3137 -10.3137 -10.3129 -10.3128 -10.3127
   -10.2919 -10.2919 -10.2918 -10.2915 -10.2914 -10.2913  -6.2046  -6.2039
    -6.2020  -6.1286  -6.1283  -6.1262  -5.4558  -5.4544  -5.4542  -5.3618
    -5.3604  -5.3603  -5.0967  -5.0959  -5.0957  -5.0091  -5.0088  -5.0082
     2.0511   2.0512   2.0518   2.0746   2.0753   2.0758   4.7071   4.7079
     4.7082   5.0957   5.0961   5.0962   5.1606   5.1610   5.1613   5.4626
     5.4631   5.4632   5.5858   5.5860   5.5861   6.5015   6.5020   6.5033
     7.1161   7.1165   7.1166   7.3723   7.3725   7.3732   7.8084   7.8084
     7.8093   8.0952   8.0956   8.0963   8.3674   8.3684   8.3694   8.6229
     8.6240   8.6240   8.8022   8.8028   8.8037   9.2015   9.2015   9.2022
     9.3705   9.3706   9.3707   9.7322   9.7322   9.7325  10.0510  10.0510
    10.0513  10.1543  10.1546  10.1551  10.3012  10.3014  10.3018  10.8426
    10.8441  10.8442  10.9670  10.9671  10.9681  11.2482  11.2485  11.2496
    11.5602  11.5606  11.5618  14.2811  14.2816  14.2828  14.3913  14.3924
    14.3929  14.4682  14.4683  14.4697  14.7359  14.7364  14.7365  15.1135
    15.1136  15.1146  15.6336  15.6350  15.6351  15.7730  15.7738  15.7742
    16.9898  16.9913  16.9915  17.0150  17.0162  17.0169  17.5269  17.5294

     occupation numbers
     1.0000   1.0000   1.0000   1.0000   1.0000   1.0000   1.0000   1.0000
     1.0000   1.0000   1.0000   1.0000   1.0000   1.0000   1.0000   1.0000
     1.0000   1.0000   1.0000   1.0000   1.0000   1.0000   1.0000   1.0000
     1.0000   1.0000   1.0000   1.0000   1.0000   1.0000   1.0000   1.0000
     1.0000   1.0000   1.0000   1.0000   1.0000   1.0000   1.0000   1.0000
     1.0000   1.0000   1.0000   1.0000   1.0000   1.0000   1.0000   1.0000
     1.0000   1.0000   1.0000   1.0000   1.0000   1.0000   1.0000   1.0000
     1.0000   1.0000   1.0000   1.0000   1.0000   1.0000   1.0000   1.0000
     1.0000   1.0000   1.0000   1.0000   1.0000   1.0000   1.0000   1.0000
     1.0000   1.0000   1.0000   1.0000   1.0000   1.0000   1.0000   1.0000
     1.0000   1.0000   1.0000   1.0000   1.0000   1.0000   1.0000   1.0000
     1.0000   1.0000   1.0000   1.0000   1.0000   1.0000   1.0000   1.0000
     1.0000   1.0000   1.0000   1.0000   1.0000   1.0000   1.0000   1.0000
     1.0000   1.0000   1.0000   1.0000   1.0000   1.0000   1.0000   1.0000
     1.0000   1.0000   1.0000   1.0000   1.0000   1.0000   1.0000   1.0000
     1.0000   1.0000   1.0000   1.0000   1.0000   1.0000   1.0000   1.0000
     1.0000   1.0000   1.0000   1.0000   1.0000   1.0000   1.0000   1.0000
     1.0000   1.0000   1.0000   1.0000   1.0000   1.0000   1.0000   1.0000
     1.0000   1.0000   1.0000  -0.0000  -0.0000  -0.0000  -0.0000  -0.0000
    -0.0000  -0.0000  -0.0000  -0.0000  -0.0000  -0.0000  -0.0000  -0.0000
    -0.0000  -0.0000  -0.0000  -0.0000  -0.0000  -0.0000  -0.0000  -0.0000
    -0.0000  -0.0000  -0.0000  -0.0000  -0.0000  -0.0000  -0.0000  -0.0000

     the Fermi energy is    12.4029 ev

!    total energy              =   -3194.35701923 Ry
     estimated scf accuracy    <       0.00000005 Ry
     smearing contrib. (-TS)   =       0.00000000 Ry
     internal energy E=F+TS    =   -3194.35701923 Ry

     The total energy is F=E-TS. E is the sum of the following terms:
     one-electron contribution =   -1255.30208539 Ry
     hartree contribution      =     820.67083229 Ry
     xc contribution           =    -695.95617882 Ry
     ewald contribution        =   -2064.48949514 Ry
     Hubbard energy            =       0.71990784 Ry

     total magnetization       =    -0.00 Bohr mag/cell
     absolute magnetization    =    26.29 Bohr mag/cell

     convergence has been achieved in  42 iterations

     Writing output data file /home/aldair1809/Documentos/QE/4BFO/temp_tipoA/scf/bifeo3.save/

     General routines

     Parallel routines

     Hubbard U routines

   This run was terminated on:  10:19:26  16Dec2024

   JOB DONE.