     Program PWSCF v.6.7MaX starts on 15Dec2024 at 16:53:31

     R & G space division:  proc/nbgrp/npool/nimage =       6
     Waiting for input...
     Reading input from standard input

     Current dimensions of program PWSCF are:
     Max number of different atomic species (ntypx) = 10
     Max number of k-points (npk) =  40000
     Max angular momentum in pseudopotentials (lmaxx) =  3
     Message from routine iosys:
     wrong startingpot: use default (1)

     bravais-lattice index     =            4
     lattice parameter (alat)  =      10.4531  a.u.
     unit-cell volume          =    2440.6662 (a.u.)^3
     number of atoms/cell      =           30
     number of atomic types    =            4
     number of electrons       =       294.00
     number of Kohn-Sham states=          176
     kinetic-energy cutoff     =      40.0000  Ry
     charge density cutoff     =     320.0000  Ry
     scf convergence threshold =      1.0E-07
     mixing beta               =       0.4000
     number of iterations used =            8  plain     mixing
     Exchange-correlation=  SLA  PW   PBX  PBC
                           (   1   4   3   4   0   0   0)

     celldm(1)=  10.453102  celldm(2)=   0.000000  celldm(3)=   2.467415
     celldm(4)=   0.000000  celldm(5)=   0.000000  celldm(6)=   0.000000

     crystal axes: (cart. coord. in units of alat)
               a(1) = (   1.000000   0.000000   0.000000 )
               a(2) = (  -0.500000   0.866025   0.000000 )
               a(3) = (   0.000000   0.000000   2.467415 )

     reciprocal axes: (cart. coord. in units 2 pi/alat)
               b(1) = (  1.000000  0.577350 -0.000000 )
               b(2) = (  0.000000  1.154701  0.000000 )
               b(3) = (  0.000000 -0.000000  0.405282 )

     PseudoPot. # 1 for O  read from file:
     /home/aldair1809/Programas/QE/q-e-qe-7.3/pseudo/o_pbe_v1.2.uspp.F.UPF
     MD5 check sum: 734c27235a0248c51dbae37a1fbe46ec
     Pseudo is Ultrasoft + core correction, Zval =  6.0
     Generated by new atomic code, or converted to UPF format
     Using radial grid of  737 points,  5 beta functions with:
                l(1) =   0
                l(2) =   0
                l(3) =   1
                l(4) =   1
                l(5) =   2
     Q(r) pseudized with  8 coefficients,  rinner =    0.900   0.900   0.900
                                                       0.900   0.900

     PseudoPot. # 2 for Bi read from file:
     /home/aldair1809/Programas/QE/q-e-qe-7.3/pseudo/bi_pbe_v1.uspp.F.UPF
     MD5 check sum: cceb9f28ec65b6d7ff33140f5b0b1758
     Pseudo is Ultrasoft + core correction, Zval = 15.0
     Generated by new atomic code, or converted to UPF format
     Using radial grid of  899 points,  6 beta functions with:
                l(1) =   0
                l(2) =   0
                l(3) =   1
                l(4) =   1
                l(5) =   2
                l(6) =   2
     Q(r) pseudized with  6 coefficients,  rinner =    1.000   1.000   1.000
                                                       1.000   1.000

     PseudoPot. # 3 for Fe read from file:
     /home/aldair1809/Programas/QE/q-e-qe-7.3/pseudo/fe_pbe_v1.5.uspp.F.UPF
     MD5 check sum: a130daea23fe5165f5d574ae7f82ed95
     Pseudo is Ultrasoft + core correction, Zval = 16.0
     Generated by new atomic code, or converted to UPF format
     Using radial grid of  861 points,  6 beta functions with:
                l(1) =   0
                l(2) =   0
                l(3) =   1
                l(4) =   1
                l(5) =   2
                l(6) =   2
     Q(r) pseudized with  8 coefficients,  rinner =    1.000   1.000   1.000
                                                       1.000   1.000

     PseudoPot. # 4 for Fe read from file:
     /home/aldair1809/Programas/QE/q-e-qe-7.3/pseudo/fe_pbe_v1.5.uspp.F.UPF
     MD5 check sum: a130daea23fe5165f5d574ae7f82ed95
     Pseudo is Ultrasoft + core correction, Zval = 16.0
     Generated by new atomic code, or converted to UPF format
     Using radial grid of  861 points,  6 beta functions with:
                l(1) =   0
                l(2) =   0
                l(3) =   1
                l(4) =   1
                l(5) =   2
                l(6) =   2
     Q(r) pseudized with  8 coefficients,  rinner =    1.000   1.000   1.000
                                                       1.000   1.000

     atomic species   valence    mass     pseudopotential
        O              6.00    15.99940     O ( 1.00)
        Bi            15.00   208.98040     Bi( 1.00)
        Fe1           16.00    55.84500     Fe( 1.00)
        Fe2           16.00    55.84500     Fe( 1.00)

     Starting magnetic structure
     atomic species   magnetization
        O            0.000
        Bi           0.000
        Fe1         -0.800
        Fe2          0.800

     Simplified LDA+U calculation (l_max = 2) with parameters (eV):
     atomic species    L          U    alpha       J0     beta
        Fe1            2     4.1000   0.0000   0.0000   0.0000
        Fe2            2     4.1000   0.0000   0.0000   0.0000

      3 Sym. Ops. (no inversion) found

                                    s                        frac. trans.

      isym =  1     identity

 cryst.   s( 1) = (     1          0          0      )
                  (     0          1          0      )
                  (     0          0          1      )

 cart.    s( 1) = (  1.0000000  0.0000000  0.0000000 )
                  (  0.0000000  1.0000000  0.0000000 )
                  (  0.0000000  0.0000000  1.0000000 )

      isym =  2     120 deg rotation - cryst. axis [0,0,1]

[...]

      isym =  3     120 deg rotation - cryst. axis [0,0,-1]

 cryst.   s( 3) = (    -1         -1          0      )
                  (     1          0          0      )
                  (     0          0          1      )

 cart.    s( 3) = ( -0.5000000  0.8660254  0.0000000 )
                  ( -0.8660254 -0.5000000  0.0000000 )
                  (  0.0000000  0.0000000  1.0000000 )

     point group C_3 (3)
     there are  3 classes
     the character table:

       E     C3    C3^2
A      1.00  1.00  1.00
E      1.00 -0.50 -0.50
E*     1.00 -0.50 -0.50
     imaginary part
A      0.00  0.00  0.00
E      0.00  0.87 -0.87
E*     0.00 -0.87  0.87

     the symmetry operations in each class and the name of the first element:

     E        1
          identity
     C3       2
          120 deg rotation - cryst. axis [0,0,1]
     C3^2     3
          120 deg rotation - cryst. axis [0,0,-1]

   Cartesian axes

     site n.     atom                  positions (alat units)
         1           Fe1 tau(   1) = (   0.0000000   0.0000000   1.9173194  )
         2           Fe1 tau(   2) = (  -0.0000005   0.5773506   2.3408318  )
         3           Fe1 tau(   3) = (   0.5000005   0.2886748   1.4987656  )
         4           Fe2 tau(   4) = (   0.5000005   0.2886748   0.2650306  )
         5           Fe2 tau(   5) = (   0.0000000   0.0000000   0.6836385  )
         6           Fe2 tau(   6) = (  -0.0000005   0.5773506   1.1071829  )
         7           Bi  tau(   7) = (   0.5000005   0.2886748   2.0704508  )
         8           Bi  tau(   8) = (  -0.0000005   0.5773506   1.6683657  )
         9           Bi  tau(   9) = (  -0.0000005   0.5773506   0.4345959  )
        10           Bi  tau(  10) = (   0.0000000   0.0000000   0.0112133  )
        11           Bi  tau(  11) = (   0.0000000   0.0000000   1.2449306  )
        12           Bi  tau(  12) = (   0.5000005   0.2886748   0.8366940  )
        13           O   tau(  13) = (  -0.3015234   0.6617768   2.1713309  )
        14           O   tau(  14) = (   0.0776467   0.2740092   2.1713309  )
        15           O   tau(  15) = (   0.2238783   0.7962639   2.1713309  )
        16           O   tau(  16) = (   0.4195843   0.5622547   1.7587968  )
        17           O   tau(  17) = (   0.3032805   0.0822442   1.7587968  )
        18           O   tau(  18) = (   0.7771337   0.2215274   1.7587968  )
        19           O   tau(  19) = (   0.6967279   0.0822438   0.5250654  )
        20           O   tau(  20) = (   0.5804103   0.5622631   0.5250654  )
        21           O   tau(  21) = (   0.2228602   0.2215194   0.5250654  )
        22           O   tau(  22) = (  -0.0757596   0.8510068   0.1130324  )
        23           O   tau(  23) = (  -0.1991137   0.3749123   0.1130324  )
        24           O   tau(  24) = (   0.2748733   0.5061317   0.1130324  )
        25           O   tau(  25) = (   0.1991050   0.3749017   1.3467955  )
        26           O   tau(  26) = (   0.0757731   0.8510045   1.3467955  )
        27           O   tau(  27) = (  -0.2748781   0.5061446   1.3467955  )
        28           O   tau(  28) = (  -0.0776631   0.2740052   0.9376559  )
        29           O   tau(  29) = (   0.3015366   0.6617637   0.9376559  )
        30           O   tau(  30) = (  -0.2238720   0.7962811   0.9376559  )

   Crystallographic axes

     site n.     atom                  positions (cryst. coord.)
         1           Fe1 tau(   1) = (  0.0000000  0.0000000  0.7770559  )
         2           Fe1 tau(   2) = (  0.3333330  0.6666670  0.9486980  )
         3           Fe1 tau(   3) = (  0.6666670  0.3333330  0.6074234  )
         4           Fe2 tau(   4) = (  0.6666670  0.3333330  0.1074122  )
         5           Fe2 tau(   5) = (  0.0000000  0.0000000  0.2770667  )
         6           Fe2 tau(   6) = (  0.3333330  0.6666670  0.4487218  )
         7           Bi  tau(   7) = (  0.6666670  0.3333330  0.8391174  )
         8           Bi  tau(   8) = (  0.3333330  0.6666670  0.6761593  )
         9           Bi  tau(   9) = (  0.3333330  0.6666670  0.1761341  )
        10           Bi  tau(  10) = (  0.0000000  0.0000000  0.0045446  )
        11           Bi  tau(  11) = (  0.0000000  0.0000000  0.5045485  )
        12           Bi  tau(  12) = (  0.6666670  0.3333330  0.3390974  )
        13           O   tau(  13) = (  0.0805536  0.7641541  0.8800023  )
        14           O   tau(  14) = (  0.2358459  0.3163985  0.8800023  )
        15           O   tau(  15) = (  0.6836015  0.9194464  0.8800023  )
        16           O   tau(  16) = (  0.7442022  0.6492358  0.7128095  )
        17           O   tau(  17) = (  0.3507642  0.0949674  0.7128095  )
        18           O   tau(  18) = (  0.9050326  0.2557978  0.7128095  )
        19           O   tau(  19) = (  0.7442114  0.0949669  0.2127998  )
        20           O   tau(  20) = (  0.9050331  0.6492455  0.2127998  )
        21           O   tau(  21) = (  0.3507545  0.2557886  0.2127998  )
        22           O   tau(  22) = (  0.4155694  0.9826580  0.0458101  )
        23           O   tau(  23) = (  0.0173420  0.4329115  0.0458101  )
        24           O   tau(  24) = (  0.5670885  0.5844306  0.0458101  )
        25           O   tau(  25) = (  0.4155546  0.4328992  0.5458326  )
        26           O   tau(  26) = (  0.5671008  0.9826554  0.5458326  )
        27           O   tau(  27) = (  0.0173446  0.5844454  0.5458326  )
        28           O   tau(  28) = (  0.0805338  0.3163939  0.3800155  )
[...]
     estimated scf accuracy    <       0.00000010 Ry

[...]

     iteration # 26     ecut=    40.00 Ry     beta= 0.40
     CG style diagonalization
     ethr =  3.55E-11,  avg # of iterations =  3.5
 --- enter write_ns ---
 LDA+U parameters:
U( 3)     =  4.10000000
U( 4)     =  4.10000000
atom    1   Tr[ns(na)] (up, down, total) =   0.96478  4.99067  5.95545
   spin  1
    eigenvalues:
  0.105  0.118  0.118  0.311  0.311
    eigenvectors:
  1.000  0.000  0.000  0.000  0.000
  0.000  0.049  0.304  0.008  0.638
  0.000  0.304  0.049  0.638  0.008
  0.000  0.165  0.482  0.181  0.173
  0.000  0.482  0.165  0.173  0.181
    occupations:
  0.105 -0.000 -0.000 -0.000 -0.000
 -0.000  0.243 -0.000  0.057  0.073
 -0.000 -0.000  0.243  0.073 -0.057
 -0.000  0.057  0.073  0.187  0.000
 -0.000  0.073 -0.057  0.000  0.187
   spin  2
    eigenvalues:
  0.998  0.998  0.998  0.999  0.999
    eigenvectors:
  0.000  0.000  1.000  0.000  0.000
  0.041  0.037  0.000  0.109  0.814
  0.037  0.041  0.000  0.814  0.109
  0.217  0.706  0.000  0.076  0.001
  0.706  0.217  0.000  0.001  0.076
    occupations:
  0.998 -0.000 -0.000 -0.000 -0.000
 -0.000  0.998 -0.000 -0.000 -0.000
 -0.000 -0.000  0.998 -0.000  0.000
 -0.000 -0.000 -0.000  0.998  0.000
 -0.000 -0.000  0.000  0.000  0.998
atomic mag. moment =  -4.02590
atom    2   Tr[ns(na)] (up, down, total) =   1.00260  4.98185  5.98445
   spin  1
    eigenvalues:
  0.106  0.114  0.114  0.335  0.335
    eigenvectors:
  1.000  0.000  0.000  0.000  0.000
  0.000  0.292  0.044  0.435  0.228
  0.000  0.044  0.292  0.228  0.435
  0.000  0.065  0.598  0.001  0.335
  0.000  0.598  0.065  0.335  0.001
    occupations:
  0.106 -0.000 -0.000 -0.000 -0.000
 -0.000  0.260 -0.000 -0.066  0.081
 -0.000 -0.000  0.260  0.081  0.066
 -0.000 -0.066  0.081  0.188  0.000
 -0.000  0.081  0.066  0.000  0.188
   spin  2
    eigenvalues:
  0.994  0.994  0.997  0.998  0.998
    eigenvectors:
  0.000  0.000  1.000  0.000  0.000
  0.329  0.361  0.000  0.235  0.076
  0.361  0.329  0.000  0.076  0.235
  0.000  0.310  0.000  0.058  0.631
  0.310  0.000  0.000  0.631  0.058
    occupations:
  0.997 -0.000 -0.000 -0.000 -0.000
 -0.000  0.995 -0.000  0.001 -0.001
 -0.000 -0.000  0.995 -0.001 -0.001
 -0.000  0.001 -0.001  0.997  0.000
 -0.000 -0.001 -0.001  0.000  0.997
atomic mag. moment =  -3.97925
atom    3   Tr[ns(na)] (up, down, total) =   1.02144  4.98156  6.00300
   spin  1
    eigenvalues:
  0.121  0.121  0.145  0.318  0.318
    eigenvectors:
  0.000  0.000  1.000  0.000  0.000
  0.385  0.100  0.000  0.454  0.062
  0.100  0.385  0.000  0.062  0.454
  0.029  0.486  0.000  0.060  0.425
  0.486  0.029  0.000  0.425  0.060
    occupations:
  0.145 -0.000 -0.000 -0.000 -0.000
 -0.000  0.222 -0.000 -0.064  0.075
 -0.000 -0.000  0.222  0.075  0.064
 -0.000 -0.064  0.075  0.216  0.000
 -0.000  0.075  0.064  0.000  0.216
   spin  2
    eigenvalues:
  0.994  0.994  0.997  0.998  0.998
    eigenvectors:
  0.000  0.000  1.000  0.000  0.000
  0.232  0.082  0.000  0.296  0.391
  0.082  0.232  0.000  0.391  0.296
  0.114  0.572  0.000  0.003  0.311
  0.572  0.114  0.000  0.311  0.003
    occupations:
  0.997 -0.000 -0.000 -0.000 -0.000
 -0.000  0.997 -0.000  0.001 -0.001
 -0.000 -0.000  0.997 -0.001 -0.001
 -0.000  0.001 -0.001  0.996  0.000
 -0.000 -0.001 -0.001  0.000  0.996
atomic mag. moment =  -3.96012
atom    4   Tr[ns(na)] (up, down, total) =   4.98156  1.02147  6.00303
   spin  1
    eigenvalues:
  0.994  0.994  0.997  0.998  0.998
    eigenvectors:
  0.000  0.000  1.000  0.000  0.000
  0.001  0.313  0.000  0.000  0.686
  0.313  0.001  0.000  0.686  0.000
  0.189  0.497  0.000  0.109  0.205
  0.497  0.189  0.000  0.205  0.109
    occupations:
  0.997 -0.000 -0.000 -0.000 -0.000
 -0.000  0.997 -0.000 -0.001 -0.001
 -0.000 -0.000  0.997 -0.001  0.001
 -0.000 -0.001 -0.001  0.996  0.000
 -0.000 -0.001  0.001  0.000  0.996
   spin  2
    eigenvalues:
  0.121  0.121  0.145  0.318  0.318
    eigenvectors:
  0.000  0.000  1.000  0.000  0.000
  0.034  0.451  0.000  0.014  0.501
  0.451  0.034  0.000  0.501  0.014
  0.160  0.356  0.000  0.197  0.288
  0.356  0.160  0.000  0.288  0.197
    occupations:
  0.145 -0.000 -0.000 -0.000 -0.000
 -0.000  0.222 -0.000  0.064  0.075
 -0.000 -0.000  0.222  0.075 -0.064
 -0.000  0.064  0.075  0.216  0.000
 -0.000  0.075 -0.064  0.000  0.216
atomic mag. moment =   3.96010
atom    5   Tr[ns(na)] (up, down, total) =   4.99067  0.96474  5.95541
   spin  1
    eigenvalues:
  0.998  0.998  0.998  0.999  0.999
    eigenvectors:
  0.000  0.000  1.000  0.000  0.000
  0.073  0.004  0.000  0.194  0.729
  0.004  0.073  0.000  0.729  0.194
  0.208  0.715  0.000  0.043  0.034
  0.715  0.208  0.000  0.034  0.043
    occupations:
  0.998 -0.000 -0.000 -0.000 -0.000
 -0.000  0.998 -0.000  0.000 -0.000
 -0.000 -0.000  0.998 -0.000 -0.000
 -0.000  0.000 -0.000  0.998  0.000
 -0.000 -0.000 -0.000  0.000  0.998
   spin  2
    eigenvalues:
  0.105  0.118  0.118  0.311  0.311
    eigenvectors:
  1.000  0.000  0.000  0.000  0.000
  0.000  0.315  0.038  0.481  0.165
  0.000  0.038  0.315  0.165  0.481
  0.000  0.066  0.581  0.006  0.348
  0.000  0.581  0.066  0.348  0.006
    occupations:
  0.105 -0.000 -0.000 -0.000 -0.000
 -0.000  0.243 -0.000 -0.057  0.073
 -0.000 -0.000  0.243  0.073  0.057
 -0.000 -0.057  0.073  0.187  0.000
 -0.000  0.073  0.057  0.000  0.187
atomic mag. moment =   4.02593
atom    6   Tr[ns(na)] (up, down, total) =   4.98186  1.00252  5.98437
   spin  1
    eigenvalues:
  0.994  0.994  0.997  0.998  0.998
    eigenvectors:
  0.000  0.000  1.000  0.000  0.000
  0.000  0.690  0.000  0.029  0.282
  0.690  0.000  0.000  0.282  0.029
  0.145  0.165  0.000  0.131  0.559
  0.165  0.145  0.000  0.559  0.131
    occupations:
  0.997 -0.000 -0.000 -0.000 -0.000
 -0.000  0.995 -0.000 -0.001 -0.001
 -0.000 -0.000  0.995 -0.001  0.001
 -0.000 -0.001 -0.001  0.997  0.000
 -0.000 -0.001  0.001  0.000  0.997
   spin  2
    eigenvalues:
  0.106  0.114  0.114  0.335  0.335
    eigenvectors:
  1.000  0.000  0.000  0.000  0.000
  0.000  0.045  0.291  0.005  0.659
  0.000  0.291  0.045  0.659  0.005
  0.000  0.157  0.507  0.172  0.164
  0.000  0.507  0.157  0.164  0.172
    occupations:
  0.106 -0.000 -0.000 -0.000 -0.000
 -0.000  0.260 -0.000  0.066  0.081
 -0.000 -0.000  0.260  0.081 -0.066
 -0.000  0.066  0.081  0.188  0.000
 -0.000  0.081 -0.066  0.000  0.188
atomic mag. moment =   3.97934
N of occupied +U levels =   35.885723
 --- exit write_ns ---

     negative rho (up, down):  1.183E-01 1.183E-01
 --- in v_hubbard ---
Hubbard energy    0.6896

     Magnetic moment per site:
     atom:    1    charge:   12.8249    magn:   -3.8781    constr:    0.0000
     atom:    2    charge:   12.8349    magn:   -3.8293    constr:    0.0000
     atom:    3    charge:   12.8445    magn:   -3.8082    constr:    0.0000
     atom:    4    charge:   12.8446    magn:    3.8082    constr:    0.0000
     atom:    5    charge:   12.8250    magn:    3.8781    constr:    0.0000
     atom:    6    charge:   12.8349    magn:    3.8294    constr:    0.0000
     atom:    7    charge:   10.6149    magn:   -0.0089    constr:    0.0000
     atom:    8    charge:   10.6131    magn:   -0.0081    constr:    0.0000
     atom:    9    charge:   10.6130    magn:    0.0081    constr:    0.0000
     atom:   10    charge:   10.6161    magn:   -0.0015    constr:    0.0000
     atom:   11    charge:   10.6162    magn:    0.0015    constr:    0.0000
     atom:   12    charge:   10.6150    magn:    0.0089    constr:    0.0000
     atom:   13    charge:    5.3087    magn:   -0.1791    constr:    0.0000
     atom:   14    charge:    5.3087    magn:   -0.1791    constr:    0.0000
     atom:   15    charge:    5.3087    magn:   -0.1791    constr:    0.0000
     atom:   16    charge:    5.3090    magn:   -0.1854    constr:    0.0000
     atom:   17    charge:    5.3090    magn:   -0.1854    constr:    0.0000
     atom:   18    charge:    5.3090    magn:   -0.1854    constr:    0.0000
     atom:   19    charge:    5.3090    magn:    0.1853    constr:    0.0000
     atom:   20    charge:    5.3090    magn:    0.1853    constr:    0.0000
     atom:   21    charge:    5.3090    magn:    0.1853    constr:    0.0000
     atom:   22    charge:    5.3136    magn:    0.0476    constr:    0.0000
     atom:   23    charge:    5.3136    magn:    0.0476    constr:    0.0000
     atom:   24    charge:    5.3136    magn:    0.0476    constr:    0.0000
     atom:   25    charge:    5.3136    magn:   -0.0476    constr:    0.0000
     atom:   26    charge:    5.3136    magn:   -0.0476    constr:    0.0000
     atom:   27    charge:    5.3136    magn:   -0.0476    constr:    0.0000
     atom:   28    charge:    5.3087    magn:    0.1791    constr:    0.0000
     atom:   29    charge:    5.3087    magn:    0.1791    constr:    0.0000
     atom:   30    charge:    5.3087    magn:    0.1791    constr:    0.0000

     End of self-consistent calculation

 ------ SPIN UP ------------

          k = 0.0000 0.0000 0.0000 ( 10443 PWs)   bands (ev):

   -79.4776 -79.2884 -79.2383 -74.1954 -74.0731 -74.0562 -45.4697 -45.4184
   -45.4184 -45.2774 -45.2766 -45.2370 -45.2370 -45.1680 -45.1680 -40.3309
   -40.2812 -40.2812 -40.2098 -40.2064 -40.1632 -40.1632 -40.1451 -40.1450
   -10.5780 -10.5780 -10.5545 -10.5545 -10.5395 -10.5300 -10.5117 -10.5117
   -10.4957 -10.4957 -10.4888 -10.4888 -10.4662 -10.4662 -10.4418 -10.4316
   -10.4187 -10.4187 -10.4084 -10.4084 -10.3989 -10.3989 -10.3937 -10.3880
   -10.3880 -10.3857 -10.3602 -10.3602 -10.3503 -10.3502  -7.2732  -6.8794
    -6.7672  -5.9278  -5.8567  -5.5592  -5.5591  -5.4497  -5.4496  -5.3494
    -5.3493  -5.2917  -5.2254  -5.2253  -4.9922  -4.9922  -4.8363  -4.8362
     1.6470   1.7725   1.8277   2.5201   2.6346   3.4247   4.1710   4.1710
     4.3098   4.3098   4.6587   4.6587   4.8732   4.8732   4.8958   5.0295
     5.0829   5.1385   5.1385   5.4766   5.5242   5.5242   6.1941   6.3375
     6.3375   6.4677   6.7607   6.7608   6.9048   7.0443   7.0444   7.3441
     7.4026   7.4027   7.5139   7.6014   7.8228   7.8229   8.1119   8.1120
     8.3462   8.4385   8.4386   8.4438   8.9374   8.9375   9.1745   9.1746
     9.3813   9.4288   9.4289   9.4597   9.6885   9.6885  10.0636  10.0636
    10.1645  10.1645  10.1684  10.2153  10.2153  10.4497  10.4498  10.6655
    10.6655  10.8142  10.9507  11.1593  11.1826  11.1827  11.2582  11.2863
    11.3445  11.9435  11.9436  13.7421  13.7421  13.8595  13.9347  13.9970
    13.9970  14.0525  14.1808  14.1808  14.3036  14.3036  14.9850  14.9851
    15.6061  15.6386  15.6386  15.8350  15.9094  16.0425  17.2633  17.2634
    17.2908  17.2909  17.3727  17.3732  17.6554  17.7314  17.8082  17.8126

     occupation numbers
     1.0000   1.0000   1.0000   1.0000   1.0000   1.0000   1.0000   1.0000
     1.0000   1.0000   1.0000   1.0000   1.0000   1.0000   1.0000   1.0000
     1.0000   1.0000   1.0000   1.0000   1.0000   1.0000   1.0000   1.0000
     1.0000   1.0000   1.0000   1.0000   1.0000   1.0000   1.0000   1.0000
     1.0000   1.0000   1.0000   1.0000   1.0000   1.0000   1.0000   1.0000
     1.0000   1.0000   1.0000   1.0000   1.0000   1.0000   1.0000   1.0000
     1.0000   1.0000   1.0000   1.0000   1.0000   1.0000   1.0000   1.0000
     1.0000   1.0000   1.0000   1.0000   1.0000   1.0000   1.0000   1.0000
     1.0000   1.0000   1.0000   1.0000   1.0000   1.0000   1.0000   1.0000
     1.0000   1.0000   1.0000   1.0000   1.0000   1.0000   1.0000   1.0000
     1.0000   1.0000   1.0000   1.0000   1.0000   1.0000   1.0000   1.0000
     1.0000   1.0000   1.0000   1.0000   1.0000   1.0000   1.0000   1.0000
     1.0000   1.0000   1.0000   1.0000   1.0000   1.0000   1.0000   1.0000
     1.0000   1.0000   1.0000   1.0000   1.0000   1.0000   1.0000   1.0000
     1.0000   1.0000   1.0000   1.0000   1.0000   1.0000   1.0000   1.0000
     1.0000   1.0000   1.0000   1.0000   1.0000   1.0000   1.0000   1.0000
     1.0000   1.0000   1.0000   1.0000   1.0000   1.0000   1.0000   1.0000
     1.0000   1.0000   1.0000   1.0000   1.0000   1.0000   1.0000   1.0000
     1.0000   1.0000   1.0000  -0.0288  -0.0288  -0.0108  -0.0014  -0.0002
    -0.0002  -0.0000  -0.0000  -0.0000  -0.0000  -0.0000  -0.0000  -0.0000
    -0.0000  -0.0000  -0.0000  -0.0000  -0.0000  -0.0000  -0.0000  -0.0000
    -0.0000  -0.0000  -0.0000  -0.0000  -0.0000  -0.0000  -0.0000  -0.0000

[...]

 ------ SPIN DOWN ----------

[...]

          k = 0.3333 0.5774-0.2026 ( 10410 PWs)   bands (ev):

   -79.4783 -79.2887 -79.2383 -74.1948 -74.0728 -74.0562 -45.4708 -45.4189
   -45.4189 -45.2777 -45.2768 -45.2373 -45.2373 -45.1680 -45.1680 -40.3302
   -40.2807 -40.2807 -40.2095 -40.2063 -40.1629 -40.1629 -40.1451 -40.1451
   -10.5532 -10.5521 -10.5467 -10.5424 -10.5424 -10.5324 -10.4923 -10.4901
   -10.4900 -10.4843 -10.4836 -10.4827 -10.4644 -10.4586 -10.4369 -10.4299
   -10.4239 -10.4211 -10.4086 -10.4081 -10.4066 -10.4043 -10.4020 -10.3981
   -10.3901 -10.3830 -10.3758 -10.3702 -10.3689 -10.3638  -6.3847  -6.3622
    -6.3591  -6.2680  -6.0820  -6.0757  -5.6270  -5.6079  -5.5930  -5.5430
    -5.5365  -5.4241  -5.3174  -5.3040  -5.2092  -5.0019  -4.9112  -4.8844
     1.7883   1.8688   1.9301   1.9889   2.0015   2.1366   4.2284   4.3115
     4.4383   4.6122   4.6988   4.7933   4.9129   4.9591   5.0637   5.0801
     5.1512   5.2337   5.2716   5.3263   5.3521   6.5289   6.6749   6.6912
     6.8261   6.9508   7.0625   7.2691   7.3044   7.5660   7.6301   7.6640
     7.7606   7.9053   7.9749   8.0329   8.0870   8.1499   8.1836   8.4391
     8.4458   8.5398   8.6276   8.6568   8.6798   8.8637   8.8728   9.0631
     9.1756   9.2571   9.2747   9.5529   9.5532   9.6431   9.7638   9.8047
     9.8443  10.0144  10.0421  10.0775  10.1237  10.1949  10.2221  10.4088
    10.4151  10.6362  10.8704  11.0207  11.0523  11.1303  11.3214  11.3566
    11.3670  11.5827  11.6462  13.6686  13.7772  13.8602  13.9793  14.0790
    14.1284  14.1825  14.2134  14.2531  14.4316  14.4742  14.5999  15.0304
    15.0319  15.0649  15.4720  15.5266  15.5466  15.6939  15.6946  15.7186
    16.8351  16.8506  16.8567  16.8602  16.8918  16.9618  17.3465  17.4047

     occupation numbers
     1.0000   1.0000   1.0000   1.0000   1.0000   1.0000   1.0000   1.0000
     1.0000   1.0000   1.0000   1.0000   1.0000   1.0000   1.0000   1.0000
     1.0000   1.0000   1.0000   1.0000   1.0000   1.0000   1.0000   1.0000
     1.0000   1.0000   1.0000   1.0000   1.0000   1.0000   1.0000   1.0000
     1.0000   1.0000   1.0000   1.0000   1.0000   1.0000   1.0000   1.0000
     1.0000   1.0000   1.0000   1.0000   1.0000   1.0000   1.0000   1.0000
     1.0000   1.0000   1.0000   1.0000   1.0000   1.0000   1.0000   1.0000
     1.0000   1.0000   1.0000   1.0000   1.0000   1.0000   1.0000   1.0000
     1.0000   1.0000   1.0000   1.0000   1.0000   1.0000   1.0000   1.0000
     1.0000   1.0000   1.0000   1.0000   1.0000   1.0000   1.0000   1.0000
     1.0000   1.0000   1.0000   1.0000   1.0000   1.0000   1.0000   1.0000
     1.0000   1.0000   1.0000   1.0000   1.0000   1.0000   1.0000   1.0000
     1.0000   1.0000   1.0000   1.0000   1.0000   1.0000   1.0000   1.0000
     1.0000   1.0000   1.0000   1.0000   1.0000   1.0000   1.0000   1.0000
     1.0000   1.0000   1.0000   1.0000   1.0000   1.0000   1.0000   1.0000
     1.0000   1.0000   1.0000   1.0000   1.0000   1.0000   1.0000   1.0000
     1.0000   1.0000   1.0000   1.0000   1.0000   1.0000   1.0000   1.0000
     1.0000   1.0000   1.0000   1.0000   1.0000   1.0000   1.0000   1.0000
     1.0000   1.0000   1.0000   0.1304  -0.0347  -0.0107  -0.0003  -0.0000
    -0.0000  -0.0000  -0.0000  -0.0000  -0.0000  -0.0000  -0.0000  -0.0000
    -0.0000  -0.0000  -0.0000  -0.0000  -0.0000  -0.0000  -0.0000  -0.0000
    -0.0000  -0.0000  -0.0000  -0.0000  -0.0000  -0.0000  -0.0000  -0.0000

     the Fermi energy is    13.6007 ev

!    total energy              =   -3194.29849561 Ry
     estimated scf accuracy    <       0.00000004 Ry
     smearing contrib. (-TS)   =       0.00178917 Ry
     internal energy E=F+TS    =   -3194.30028477 Ry

     The total energy is F=E-TS. E is the sum of the following terms:
     one-electron contribution =   -1263.51671310 Ry
     hartree contribution      =     822.90781369 Ry
     xc contribution           =    -695.89966630 Ry
     ewald contribution        =   -2058.48132505 Ry
     Hubbard energy            =       0.68960599 Ry

     total magnetization       =    -0.00 Bohr mag/cell
     absolute magnetization    =    28.44 Bohr mag/cell

     convergence has been achieved in  26 iterations

     Writing output data file /home/aldair1809/Documentos/QE/4BFO/temp_tipoA/scf/bifeo3.save/

     General routines

     Parallel routines

     Hubbard U routines

   This run was terminated on:  18:32:32  15Dec2024

   JOB DONE.