     Program PWSCF v.6.7MaX starts on 26Oct2024 at 22:50:44

     R & G space division:  proc/nbgrp/npool/nimage =       4
     Waiting for input...
     Reading input from standard input

     Current dimensions of program PWSCF are:
     Max number of different atomic species (ntypx) = 10
     Max number of k-points (npk) =  40000
     Max angular momentum in pseudopotentials (lmaxx) =  3

     bravais-lattice index     =            4
     lattice parameter (alat)  =      10.4531  a.u.
     unit-cell volume          =    2440.6662 (a.u.)^3
     number of atoms/cell      =           30
     number of atomic types    =            4
     number of electrons       =       294.00
     number of Kohn-Sham states=          200
     kinetic-energy cutoff     =      35.0000  Ry
     charge density cutoff     =     140.0000  Ry
     scf convergence threshold =      1.0E-07
     mixing beta               =       0.4000
     number of iterations used =            8  plain     mixing
     Exchange-correlation=  SLA  PW   PBX  PBC
                           (   1   4   3   4   0   0   0)

     celldm(1)=  10.453102  celldm(2)=   0.000000  celldm(3)=   2.467415
     celldm(4)=   0.000000  celldm(5)=   0.000000  celldm(6)=   0.000000

     crystal axes: (cart. coord. in units of alat)
               a(1) = (   1.000000   0.000000   0.000000 )
               a(2) = (  -0.500000   0.866025   0.000000 )
               a(3) = (   0.000000   0.000000   2.467415 )

     reciprocal axes: (cart. coord. in units 2 pi/alat)
               b(1) = (  1.000000  0.577350 -0.000000 )
               b(2) = (  0.000000  1.154701  0.000000 )
               b(3) = (  0.000000 -0.000000  0.405282 )

     PseudoPot. # 1 for O  read from file:
     /home/aldair1809/Programas/QE/q-e-qe-7.3/pseudo/o_pbe_v1.2.uspp.F.UPF
     MD5 check sum: 734c27235a0248c51dbae37a1fbe46ec
     Pseudo is Ultrasoft + core correction, Zval =  6.0
     Generated by new atomic code, or converted to UPF format
     Using radial grid of  737 points,  5 beta functions with:
                l(1) =   0
                l(2) =   0
                l(3) =   1
                l(4) =   1
                l(5) =   2
     Q(r) pseudized with  8 coefficients,  rinner =    0.900   0.900   0.900
                                                       0.900   0.900

     PseudoPot. # 2 for Bi read from file:
     /home/aldair1809/Programas/QE/q-e-qe-7.3/pseudo/bi_pbe_v1.uspp.F.UPF
     MD5 check sum: cceb9f28ec65b6d7ff33140f5b0b1758
     Pseudo is Ultrasoft + core correction, Zval = 15.0
     Generated by new atomic code, or converted to UPF format
     Using radial grid of  899 points,  6 beta functions with:
                l(1) =   0
                l(2) =   0
                l(3) =   1
                l(4) =   1
                l(5) =   2
                l(6) =   2
     Q(r) pseudized with  6 coefficients,  rinner =    1.000   1.000   1.000
                                                       1.000   1.000

     PseudoPot. # 3 for Fe read from file:
     /home/aldair1809/Programas/QE/q-e-qe-7.3/pseudo/fe_pbe_v1.5.uspp.F.UPF
     MD5 check sum: a130daea23fe5165f5d574ae7f82ed95
     Pseudo is Ultrasoft + core correction, Zval = 16.0
     Generated by new atomic code, or converted to UPF format
     Using radial grid of  861 points,  6 beta functions with:
                l(1) =   0
                l(2) =   0
                l(3) =   1
                l(4) =   1
                l(5) =   2
                l(6) =   2
     Q(r) pseudized with  8 coefficients,  rinner =    1.000   1.000   1.000
                                                       1.000   1.000

     PseudoPot. # 4 for Fe read from file:
     /home/aldair1809/Programas/QE/q-e-qe-7.3/pseudo/fe_pbe_v1.5.uspp.F.UPF
     MD5 check sum: a130daea23fe5165f5d574ae7f82ed95
     Pseudo is Ultrasoft + core correction, Zval = 16.0
     Generated by new atomic code, or converted to UPF format
     Using radial grid of  861 points,  6 beta functions with:
                l(1) =   0
                l(2) =   0
                l(3) =   1
                l(4) =   1
                l(5) =   2
                l(6) =   2
     Q(r) pseudized with  8 coefficients,  rinner =    1.000   1.000   1.000
                                                       1.000   1.000

     atomic species   valence    mass     pseudopotential
        O              6.00    15.99940     O ( 1.00)
        Bi            15.00   208.98040     Bi( 1.00)
        Fe1           16.00    55.84500     Fe( 1.00)
        Fe2           16.00    55.84500     Fe( 1.00)

     Starting magnetic structure
     atomic species   magnetization
        O            0.000
        Bi           0.000
        Fe1         -0.800
        Fe2          0.800

     Simplified LDA+U calculation (l_max = 2) with parameters (eV):
     atomic species    L          U    alpha       J0     beta
        Fe1            2     0.0000   0.0500   0.0000   0.0000
        Fe2            2     0.0000   0.0500   0.0000   0.0000

      3 Sym. Ops. (no inversion) found

                                    s                        frac. trans.

      isym =  1     identity

 cryst.   s( 1) = (     1          0          0      )
                  (     0          1          0      )
                  (     0          0          1      )

 cart.    s( 1) = (  1.0000000  0.0000000  0.0000000 )
                  (  0.0000000  1.0000000  0.0000000 )
                  (  0.0000000  0.0000000  1.0000000 )

      isym =  2     120 deg rotation - cryst. axis [0,0,1]

[...]

      isym =  3     120 deg rotation - cryst. axis [0,0,-1]

 cryst.   s( 3) = (    -1         -1          0      )
                  (     1          0          0      )
                  (     0          0          1      )

 cart.    s( 3) = ( -0.5000000  0.8660254  0.0000000 )
                  ( -0.8660254 -0.5000000  0.0000000 )
                  (  0.0000000  0.0000000  1.0000000 )

     point group C_3 (3)
     there are  3 classes
     the character table:

       E     C3    C3^2
A      1.00  1.00  1.00
E      1.00 -0.50 -0.50
E*     1.00 -0.50 -0.50
     imaginary part
A      0.00  0.00  0.00
E      0.00  0.87 -0.87
E*     0.00 -0.87  0.87

     the symmetry operations in each class and the name of the first element:

     E        1
          identity
     C3       2
          120 deg rotation - cryst. axis [0,0,1]
     C3^2     3
          120 deg rotation - cryst. axis [0,0,-1]

   Cartesian axes

     site n.     atom                  positions (alat units)
         1           Fe1 tau(   1) = (   0.0000000   0.0000000   1.9173194  )
         2           Fe1 tau(   2) = (  -0.0000005   0.5773506   2.3408318  )
         3           Fe1 tau(   3) = (   0.5000005   0.2886748   1.4987656  )
         4           Fe2 tau(   4) = (   0.5000005   0.2886748   0.2650306  )
         5           Fe2 tau(   5) = (   0.0000000   0.0000000   0.6836385  )
         6           Fe2 tau(   6) = (  -0.0000005   0.5773506   1.1071829  )
         7           Bi  tau(   7) = (   0.5000005   0.2886748   2.0704508  )
         8           Bi  tau(   8) = (  -0.0000005   0.5773506   1.6683657  )
         9           Bi  tau(   9) = (  -0.0000005   0.5773506   0.4345959  )
        10           Bi  tau(  10) = (   0.0000000   0.0000000   0.0112133  )
        11           Bi  tau(  11) = (   0.0000000   0.0000000   1.2449306  )
        12           Bi  tau(  12) = (   0.5000005   0.2886748   0.8366940  )
        13           O   tau(  13) = (  -0.3015234   0.6617768   2.1713309  )
        14           O   tau(  14) = (   0.0776467   0.2740092   2.1713309  )
        15           O   tau(  15) = (   0.2238783   0.7962639   2.1713309  )
        16           O   tau(  16) = (   0.4195843   0.5622547   1.7587968  )
        17           O   tau(  17) = (   0.3032805   0.0822442   1.7587968  )
        18           O   tau(  18) = (   0.7771337   0.2215274   1.7587968  )
        19           O   tau(  19) = (   0.6967279   0.0822438   0.5250654  )
        20           O   tau(  20) = (   0.5804103   0.5622631   0.5250654  )
        21           O   tau(  21) = (   0.2228602   0.2215194   0.5250654  )
        22           O   tau(  22) = (  -0.0757596   0.8510068   0.1130324  )
        23           O   tau(  23) = (  -0.1991137   0.3749123   0.1130324  )
        24           O   tau(  24) = (   0.2748733   0.5061317   0.1130324  )
        25           O   tau(  25) = (   0.1991050   0.3749017   1.3467955  )
        26           O   tau(  26) = (   0.0757731   0.8510045   1.3467955  )
        27           O   tau(  27) = (  -0.2748781   0.5061446   1.3467955  )
        28           O   tau(  28) = (  -0.0776631   0.2740052   0.9376559  )
        29           O   tau(  29) = (   0.3015366   0.6617637   0.9376559  )
        30           O   tau(  30) = (  -0.2238720   0.7962811   0.9376559  )

   Crystallographic axes

     site n.     atom                  positions (cryst. coord.)
         1           Fe1 tau(   1) = (  0.0000000  0.0000000  0.7770559  )
         2           Fe1 tau(   2) = (  0.3333330  0.6666670  0.9486980  )
         3           Fe1 tau(   3) = (  0.6666670  0.3333330  0.6074234  )
         4           Fe2 tau(   4) = (  0.6666670  0.3333330  0.1074122  )
         5           Fe2 tau(   5) = (  0.0000000  0.0000000  0.2770667  )
         6           Fe2 tau(   6) = (  0.3333330  0.6666670  0.4487218  )
         7           Bi  tau(   7) = (  0.6666670  0.3333330  0.8391174  )
         8           Bi  tau(   8) = (  0.3333330  0.6666670  0.6761593  )
         9           Bi  tau(   9) = (  0.3333330  0.6666670  0.1761341  )
        10           Bi  tau(  10) = (  0.0000000  0.0000000  0.0045446  )
        11           Bi  tau(  11) = (  0.0000000  0.0000000  0.5045485  )
        12           Bi  tau(  12) = (  0.6666670  0.3333330  0.3390974  )
        13           O   tau(  13) = (  0.0805536  0.7641541  0.8800023  )
        14           O   tau(  14) = (  0.2358459  0.3163985  0.8800023  )
        15           O   tau(  15) = (  0.6836015  0.9194464  0.8800023  )
        16           O   tau(  16) = (  0.7442022  0.6492358  0.7128095  )
        17           O   tau(  17) = (  0.3507642  0.0949674  0.7128095  )
        18           O   tau(  18) = (  0.9050326  0.2557978  0.7128095  )
        19           O   tau(  19) = (  0.7442114  0.0949669  0.2127998  )
        20           O   tau(  20) = (  0.9050331  0.6492455  0.2127998  )
        21           O   tau(  21) = (  0.3507545  0.2557886  0.2127998  )
        22           O   tau(  22) = (  0.4155694  0.9826580  0.0458101  )
        23           O   tau(  23) = (  0.0173420  0.4329115  0.0458101  )
        24           O   tau(  24) = (  0.5670885  0.5844306  0.0458101  )
        25           O   tau(  25) = (  0.4155546  0.4328992  0.5458326  )
        26           O   tau(  26) = (  0.5671008  0.9826554  0.5458326  )
        27           O   tau(  27) = (  0.0173446  0.5844454  0.5458326  )
        28           O   tau(  28) = (  0.0805338  0.3163939  0.3800155  )
        29           O   tau(  29) = (  0.6836061  0.7641389  0.3800155  )
[...]
  0.043  0.296  0.000  0.048  0.613
  0.296  0.043  0.000  0.613  0.048
  0.225  0.435  0.000  0.146  0.193
  0.435  0.225  0.000  0.193  0.146
    occupations:
  0.993 -0.000 -0.000 -0.000 -0.000
 -0.000  0.993 -0.000 -0.001 -0.002
 -0.000 -0.000  0.993 -0.002  0.001
 -0.000 -0.001 -0.002  0.992  0.000
 -0.000 -0.002  0.001  0.000  0.992
atomic mag. moment =  -3.82252
atom    2   Tr[ns(na)] (up, down, total) =   1.24324  4.91563  6.15887
   spin  1
    eigenvalues:
  0.177  0.191  0.191  0.342  0.342
    eigenvectors:
  1.000  0.000  0.000  0.000  0.000
  0.000  0.195  0.072  0.243  0.489
  0.000  0.072  0.195  0.489  0.243
  0.000  0.102  0.631  0.000  0.267
  0.000  0.631  0.102  0.267  0.000
    occupations:
  0.177 -0.000 -0.000 -0.000 -0.000
 -0.000  0.302 -0.000 -0.054  0.040
 -0.000 -0.000  0.302  0.040  0.054
 -0.000 -0.054  0.040  0.231  0.000
 -0.000  0.040  0.054  0.000  0.231
   spin  2
    eigenvalues:
  0.970  0.970  0.991  0.992  0.992
    eigenvectors:
  0.000  0.000  1.000  0.000  0.000
  0.479  0.173  0.000  0.299  0.049
  0.173  0.479  0.000  0.049  0.299
  0.004  0.344  0.000  0.044  0.608
  0.344  0.004  0.000  0.608  0.044
    occupations:
  0.991 -0.000 -0.000 -0.000 -0.000
 -0.000  0.978 -0.000  0.007 -0.009
 -0.000 -0.000  0.978 -0.009 -0.007
 -0.000  0.007 -0.009  0.985  0.000
 -0.000 -0.009 -0.007  0.000  0.985
atomic mag. moment =  -3.67239
atom    3   Tr[ns(na)] (up, down, total) =   1.26032  4.92055  6.18087
   spin  1
    eigenvalues:
  0.196  0.196  0.206  0.331  0.331
    eigenvectors:
  0.000  0.000  1.000  0.000  0.000
  0.363  0.235  0.000  0.298  0.104
  0.235  0.363  0.000  0.104  0.298
  0.024  0.378  0.000  0.087  0.511
  0.378  0.024  0.000  0.511  0.087
    occupations:
  0.206 -0.000 -0.000 -0.000 -0.000
 -0.000  0.250 -0.000 -0.053  0.040
 -0.000 -0.000  0.250  0.040  0.053
 -0.000 -0.053  0.040  0.277  0.000
 -0.000  0.040  0.053  0.000  0.277
   spin  2
    eigenvalues:
  0.974  0.974  0.990  0.991  0.991
    eigenvectors:
  0.000  0.000  1.000  0.000  0.000
  0.455  0.088  0.000  0.341  0.116
  0.088  0.455  0.000  0.116  0.341
  0.044  0.412  0.000  0.022  0.521
  0.412  0.044  0.000  0.521  0.022
    occupations:
  0.990 -0.000 -0.000 -0.000 -0.000
 -0.000  0.982 -0.000  0.006 -0.006
 -0.000 -0.000  0.982 -0.006 -0.006
 -0.000  0.006 -0.006  0.983  0.000
 -0.000 -0.006 -0.006  0.000  0.983
atomic mag. moment =  -3.66024
atom    4   Tr[ns(na)] (up, down, total) =   4.92059  1.26031  6.18089
   spin  1
    eigenvalues:
  0.974  0.974  0.990  0.991  0.991
    eigenvectors:
  0.000  0.000  1.000  0.000  0.000
  0.010  0.533  0.000  0.050  0.407
  0.533  0.010  0.000  0.407  0.050
  0.190  0.267  0.000  0.126  0.418
  0.267  0.190  0.000  0.418  0.126
    occupations:
  0.990 -0.000 -0.000 -0.000 -0.000
 -0.000  0.982 -0.000 -0.006 -0.006
 -0.000 -0.000  0.982 -0.006  0.006
 -0.000 -0.006 -0.006  0.983  0.000
 -0.000 -0.006  0.006  0.000  0.983
   spin  2
    eigenvalues:
  0.196  0.196  0.206  0.331  0.331
    eigenvectors:
  0.000  0.000  1.000  0.000  0.000
  0.001  0.597  0.000  0.002  0.400
  0.597  0.001  0.000  0.400  0.002
  0.159  0.243  0.000  0.182  0.416
  0.243  0.159  0.000  0.416  0.182
    occupations:
  0.206 -0.000 -0.000 -0.000 -0.000
 -0.000  0.250 -0.000  0.053  0.040
 -0.000 -0.000  0.250  0.040 -0.053
 -0.000  0.053  0.040  0.277  0.000
 -0.000  0.040 -0.053  0.000  0.277
atomic mag. moment =   3.66028
atom    5   Tr[ns(na)] (up, down, total) =   4.96271  1.14014  6.10286
   spin  1
    eigenvalues:
  0.990  0.990  0.993  0.994  0.994
    eigenvectors:
  0.000  0.000  1.000  0.000  0.000
  0.336  0.003  0.000  0.446  0.215
  0.003  0.336  0.000  0.215  0.446
  0.144  0.517  0.000  0.000  0.339
  0.517  0.144  0.000  0.339  0.000
    occupations:
  0.993 -0.000 -0.000 -0.000 -0.000
 -0.000  0.993 -0.000  0.001 -0.002
 -0.000 -0.000  0.993 -0.002 -0.001
 -0.000  0.001 -0.002  0.992  0.000
 -0.000 -0.002 -0.001  0.000  0.992
   spin  2
    eigenvalues:
  0.166  0.172  0.172  0.315  0.315
    eigenvectors:
  1.000  0.000  0.000  0.000  0.000
  0.000  0.366  0.021  0.585  0.027
  0.000  0.021  0.366  0.027  0.585
  0.000  0.059  0.553  0.043  0.344
  0.000  0.553  0.059  0.344  0.043
    occupations:
  0.166 -0.000 -0.000 -0.000 -0.000
 -0.000  0.260 -0.000 -0.037  0.059
 -0.000 -0.000  0.260  0.059  0.037
 -0.000 -0.037  0.059  0.228  0.000
 -0.000  0.059  0.037  0.000  0.228
atomic mag. moment =   3.82257
atom    6   Tr[ns(na)] (up, down, total) =   4.91566  1.24319  6.15885
   spin  1
    eigenvalues:
  0.970  0.970  0.991  0.992  0.992
    eigenvectors:
  0.000  0.000  1.000  0.000  0.000
  0.009  0.643  0.000  0.071  0.277
  0.643  0.009  0.000  0.277  0.071
  0.180  0.168  0.000  0.125  0.527
  0.168  0.180  0.000  0.527  0.125
    occupations:
  0.991 -0.000 -0.000 -0.000 -0.000
 -0.000  0.978 -0.000 -0.007 -0.009
 -0.000 -0.000  0.978 -0.009  0.007
 -0.000 -0.007 -0.009  0.985  0.000
 -0.000 -0.009  0.007  0.000  0.985
   spin  2
    eigenvalues:
  0.177  0.191  0.191  0.342  0.342
    eigenvectors:
  1.000  0.000  0.000  0.000  0.000
  0.000  0.005  0.262  0.004  0.728
  0.000  0.262  0.005  0.728  0.004
  0.000  0.173  0.560  0.117  0.151
  0.000  0.560  0.173  0.151  0.117
    occupations:
  0.177 -0.000 -0.000 -0.000 -0.000
 -0.000  0.302 -0.000  0.054  0.040
 -0.000 -0.000  0.302  0.040 -0.054
 -0.000  0.054  0.040  0.231  0.000
 -0.000  0.040 -0.054  0.000  0.231
atomic mag. moment =   3.67247
N of occupied +U levels =   36.885208
 --- exit write_ns ---

     negative rho (up, down):  1.235E-01 1.235E-01
 --- in v_hubbard ---
Hubbard energy    0.1356

     Magnetic moment per site:
     atom:    1    charge:   12.8822    magn:   -3.7001    constr:    0.0000
     atom:    2    charge:   12.8947    magn:   -3.5438    constr:    0.0000
     atom:    3    charge:   12.9112    magn:   -3.5262    constr:    0.0000
     atom:    4    charge:   12.9113    magn:    3.5263    constr:    0.0000
     atom:    5    charge:   12.8823    magn:    3.7001    constr:    0.0000
     atom:    6    charge:   12.8948    magn:    3.5439    constr:    0.0000
     atom:    7    charge:   10.6106    magn:   -0.0147    constr:    0.0000
     atom:    8    charge:   10.6098    magn:   -0.0118    constr:    0.0000
     atom:    9    charge:   10.6098    magn:    0.0118    constr:    0.0000
     atom:   10    charge:   10.6111    magn:   -0.0036    constr:    0.0000
     atom:   11    charge:   10.6111    magn:    0.0036    constr:    0.0000
     atom:   12    charge:   10.6106    magn:    0.0147    constr:    0.0000
     atom:   13    charge:    5.2920    magn:   -0.2033    constr:    0.0000
     atom:   14    charge:    5.2920    magn:   -0.2033    constr:    0.0000
     atom:   15    charge:    5.2920    magn:   -0.2033    constr:    0.0000
     atom:   16    charge:    5.2922    magn:   -0.2166    constr:    0.0000
     atom:   17    charge:    5.2922    magn:   -0.2166    constr:    0.0000
     atom:   18    charge:    5.2922    magn:   -0.2166    constr:    0.0000
     atom:   19    charge:    5.2921    magn:    0.2166    constr:    0.0000
     atom:   20    charge:    5.2921    magn:    0.2166    constr:    0.0000
     atom:   21    charge:    5.2921    magn:    0.2166    constr:    0.0000
     atom:   22    charge:    5.2928    magn:    0.0616    constr:    0.0000
     atom:   23    charge:    5.2928    magn:    0.0616    constr:    0.0000
     atom:   24    charge:    5.2928    magn:    0.0616    constr:    0.0000
     atom:   25    charge:    5.2928    magn:   -0.0616    constr:    0.0000
     atom:   26    charge:    5.2928    magn:   -0.0616    constr:    0.0000
     atom:   27    charge:    5.2928    magn:   -0.0616    constr:    0.0000
     atom:   28    charge:    5.2920    magn:    0.2032    constr:    0.0000
     atom:   29    charge:    5.2920    magn:    0.2032    constr:    0.0000
     atom:   30    charge:    5.2920    magn:    0.2032    constr:    0.0000

     End of self-consistent calculation

 ------ SPIN UP ------------

          k = 0.0000 0.0000 0.0000 (  8497 PWs)   bands (ev):

   -78.5308 -78.2301 -78.1074 -73.5210 -73.4401 -73.3463 -44.5492 -44.4941
   -44.4941 -44.2219 -44.2218 -44.2117 -44.2088 -44.0472 -44.0472 -39.6714
   -39.6271 -39.6271 -39.5813 -39.5516 -39.5516 -39.5228 -39.4507 -39.4507
   -10.7159 -10.7158 -10.6924 -10.6924 -10.6778 -10.6651 -10.6486 -10.6486
   -10.6333 -10.6333 -10.6260 -10.6260 -10.6048 -10.6048 -10.5795 -10.5692
   -10.5582 -10.5582 -10.5491 -10.5491 -10.5325 -10.5325 -10.5270 -10.5198
   -10.5198 -10.5157 -10.4949 -10.4949 -10.4837 -10.4837  -7.3840  -6.9947
    -6.8603  -6.0443  -5.9637  -5.5930  -5.5928  -5.4940  -5.4939  -5.4276
    -5.4275  -5.4024  -5.3024  -5.3023  -5.1022  -5.1021  -4.9462  -4.9461
     1.5811   1.6972   1.7278   2.4181   2.5418   3.3196   5.4129   5.4129
     5.4797   5.9475   5.9476   6.0194   6.0729   6.0729   6.2415   6.3086
     6.3086   6.5187   6.5503   6.5525   6.5525   6.7045   6.7046   6.8689
     6.8690   6.9993   7.1289   7.2614   7.2614   7.6473   7.6474   7.6714
     7.8239   8.1829   8.1830   8.4096   8.5184   8.5184   8.6928   8.6928
     8.9161   9.1001   9.1002   9.1525   9.2610   9.2611   9.3301   9.4394
     9.4395   9.4471   9.5591   9.5591   9.7191   9.7191  10.0239  10.0240
    10.0694  10.0695  10.0906  10.1346  10.1346  10.4992  10.4992  10.6392
    10.8468  10.9839  11.0601  11.0601  11.1530  11.1799  11.2920  11.8934
    11.8935  12.6429  12.6429  12.9453  12.9453  13.1210  13.2012  13.2116
    13.2116  13.2408  13.3833  13.3833  14.2463  14.2463  14.9939  14.9940
    15.5119  15.6300  15.6301  15.7249  15.7851  15.9133  17.1351  17.1352
    17.1599  17.1599  17.2600  17.2600  17.5404  17.6053  17.6754  17.6754
    17.7328  17.7328  18.1479  18.1479  19.5712  20.5880  21.1228  21.2512
    21.5324  21.5324  22.0574  22.1957  22.5668  22.5668  22.6500  22.6500
    22.7701  22.7702  23.9876  23.9876  24.0550  24.0550  24.1591  24.3856

     occupation numbers
     1.0000   1.0000   1.0000   1.0000   1.0000   1.0000   1.0000   1.0000
     1.0000   1.0000   1.0000   1.0000   1.0000   1.0000   1.0000   1.0000
     1.0000   1.0000   1.0000   1.0000   1.0000   1.0000   1.0000   1.0000
     1.0000   1.0000   1.0000   1.0000   1.0000   1.0000   1.0000   1.0000
     1.0000   1.0000   1.0000   1.0000   1.0000   1.0000   1.0000   1.0000
     1.0000   1.0000   1.0000   1.0000   1.0000   1.0000   1.0000   1.0000
     1.0000   1.0000   1.0000   1.0000   1.0000   1.0000   1.0000   1.0000
     1.0000   1.0000   1.0000   1.0000   1.0000   1.0000   1.0000   1.0000
     1.0000   1.0000   1.0000   1.0000   1.0000   1.0000   1.0000   1.0000
     1.0000   1.0000   1.0000   1.0000   1.0000   1.0000   1.0000   1.0000
     1.0000   1.0000   1.0000   1.0000   1.0000   1.0000   1.0000   1.0000
     1.0000   1.0000   1.0000   1.0000   1.0000   1.0000   1.0000   1.0000
     1.0000   1.0000   1.0000   1.0000   1.0000   1.0000   1.0000   1.0000
     1.0000   1.0000   1.0000   1.0000   1.0000   1.0000   1.0000   1.0000
     1.0000   1.0000   1.0000   1.0000   1.0000   1.0000   1.0000   1.0000
     1.0000   1.0000   1.0000   1.0000   1.0000   1.0000   1.0000   1.0000
     1.0000   1.0000   1.0000   1.0000   1.0000   1.0000   1.0000   1.0000
     1.0000   1.0000   1.0000   1.0000   1.0000   1.0000   1.0000   1.0000
     1.0000   1.0351   1.0351  -0.0291  -0.0291  -0.0023  -0.0001  -0.0001
    -0.0001  -0.0000  -0.0000  -0.0000  -0.0000  -0.0000  -0.0000  -0.0000
    -0.0000  -0.0000  -0.0000  -0.0000  -0.0000  -0.0000  -0.0000  -0.0000
    -0.0000  -0.0000  -0.0000  -0.0000  -0.0000  -0.0000  -0.0000  -0.0000
    -0.0000  -0.0000  -0.0000  -0.0000  -0.0000  -0.0000  -0.0000  -0.0000
    -0.0000  -0.0000  -0.0000  -0.0000  -0.0000  -0.0000  -0.0000  -0.0000
    -0.0000  -0.0000  -0.0000  -0.0000  -0.0000  -0.0000  -0.0000  -0.0000

[...]

 ------ SPIN DOWN ----------

[...]

          k = 0.0000-0.5774 0.0000 (  8560 PWs)   bands (ev):

   -78.5306 -78.2305 -78.1070 -73.5211 -73.4396 -73.3467 -44.5491 -44.4940
   -44.4940 -44.2224 -44.2223 -44.2112 -44.2091 -44.0469 -44.0468 -39.6714
   -39.6273 -39.6273 -39.5808 -39.5512 -39.5511 -39.5232 -39.4512 -39.4511
   -10.7122 -10.6931 -10.6801 -10.6752 -10.6705 -10.6640 -10.6467 -10.6311
   -10.6262 -10.6216 -10.6136 -10.6121 -10.6071 -10.6039 -10.5782 -10.5681
   -10.5631 -10.5583 -10.5515 -10.5502 -10.5481 -10.5401 -10.5360 -10.5242
   -10.5232 -10.5126 -10.5110 -10.5006 -10.4983 -10.4866  -6.6740  -6.6421
    -6.4788  -6.2753  -6.2281  -5.8864  -5.8022  -5.7427  -5.6258  -5.5580
    -5.4953  -5.4741  -5.3982  -5.3303  -5.2082  -5.1504  -5.0462  -4.9701
     1.5167   1.7710   1.8139   2.0681   2.1435   2.3166   5.5829   5.8621
     5.8845   6.0285   6.2095   6.2595   6.3358   6.3760   6.4002   6.5772
     6.6171   6.6814   6.8035   6.8495   7.0907   7.1185   7.1944   7.3100
     7.3554   7.4849   7.5712   7.6105   7.7506   7.8540   7.8749   7.9871
     8.0417   8.1883   8.2272   8.3450   8.3625   8.3814   8.5075   8.5721
     8.7289   8.8035   8.8909   9.0027   9.0446   9.1252   9.1592   9.2425
     9.2729   9.3729   9.4426   9.5361   9.6460   9.7455   9.8261   9.8509
     9.8747   9.9616   9.9925  10.1010  10.1731  10.2656  10.3051  10.5222
    10.7047  10.7827  10.9967  11.0781  11.1782  11.3599  11.5441  11.8445
    11.8749  11.9450  12.5672  12.9194  13.0457  13.1216  13.2011  13.2400
    13.3249  13.3670  13.5300  13.6457  14.2592  14.3005  14.5095  14.7884
    14.8376  15.2085  15.3986  15.6912  15.7599  15.8760  15.9576  16.0156
    16.1193  16.1645  16.2537  16.9840  17.1389  17.2636  17.3328  17.4042
    17.4837  17.5449  17.6285  17.7044  21.3549  21.5614  21.8545  22.2622
    22.4372  22.5381  22.9110  22.9740  23.0494  23.1986  23.3147  23.3460
    23.4262  23.4616  23.9389  23.9666  24.1539  24.1836  24.3219  24.4378

     occupation numbers
     1.0000   1.0000   1.0000   1.0000   1.0000   1.0000   1.0000   1.0000
     1.0000   1.0000   1.0000   1.0000   1.0000   1.0000   1.0000   1.0000
     1.0000   1.0000   1.0000   1.0000   1.0000   1.0000   1.0000   1.0000
     1.0000   1.0000   1.0000   1.0000   1.0000   1.0000   1.0000   1.0000
     1.0000   1.0000   1.0000   1.0000   1.0000   1.0000   1.0000   1.0000
     1.0000   1.0000   1.0000   1.0000   1.0000   1.0000   1.0000   1.0000
     1.0000   1.0000   1.0000   1.0000   1.0000   1.0000   1.0000   1.0000
     1.0000   1.0000   1.0000   1.0000   1.0000   1.0000   1.0000   1.0000
     1.0000   1.0000   1.0000   1.0000   1.0000   1.0000   1.0000   1.0000
     1.0000   1.0000   1.0000   1.0000   1.0000   1.0000   1.0000   1.0000
     1.0000   1.0000   1.0000   1.0000   1.0000   1.0000   1.0000   1.0000
     1.0000   1.0000   1.0000   1.0000   1.0000   1.0000   1.0000   1.0000
     1.0000   1.0000   1.0000   1.0000   1.0000   1.0000   1.0000   1.0000
     1.0000   1.0000   1.0000   1.0000   1.0000   1.0000   1.0000   1.0000
     1.0000   1.0000   1.0000   1.0000   1.0000   1.0000   1.0000   1.0000
     1.0000   1.0000   1.0000   1.0000   1.0000   1.0000   1.0000   1.0000
     1.0000   1.0000   1.0000   1.0000   1.0000   1.0000   1.0000   1.0000
     1.0000   1.0000   1.0000   1.0000   1.0000   1.0000   1.0000   1.0000
     1.0000   1.0000   1.0171  -0.0025  -0.0151  -0.0023  -0.0001  -0.0000
    -0.0000  -0.0000  -0.0000  -0.0000  -0.0000  -0.0000  -0.0000  -0.0000
    -0.0000  -0.0000  -0.0000  -0.0000  -0.0000  -0.0000  -0.0000  -0.0000
    -0.0000  -0.0000  -0.0000  -0.0000  -0.0000  -0.0000  -0.0000  -0.0000
    -0.0000  -0.0000  -0.0000  -0.0000  -0.0000  -0.0000  -0.0000  -0.0000
    -0.0000  -0.0000  -0.0000  -0.0000  -0.0000  -0.0000  -0.0000  -0.0000
    -0.0000  -0.0000  -0.0000  -0.0000  -0.0000  -0.0000  -0.0000  -0.0000

     the Fermi energy is    12.8032 ev

!    total energy              =   -3194.90205543 Ry
     estimated scf accuracy    <       0.00000001 Ry
     smearing contrib. (-TS)   =       0.00277826 Ry
     internal energy E=F+TS    =   -3194.90483369 Ry

     The total energy is F=E-TS. E is the sum of the following terms:
     one-electron contribution =   -1267.07724545 Ry
     hartree contribution      =     826.16756338 Ry
     xc contribution           =    -695.64937407 Ry
     ewald contribution        =   -2058.48132819 Ry
     Hubbard energy            =       0.13555064 Ry

     total magnetization       =    -0.00 Bohr mag/cell
     absolute magnetization    =    27.36 Bohr mag/cell

     convergence has been achieved in  13 iterations

     Writing output data file /home/aldair1809/Documentos/QE/4BFO/hubbard_pbe_mp/lr_0.05/bifeo3-Uhubbard.save/

     General routines

     Parallel routines

     Hubbard U routines

   This run was terminated on:  23:29:48  26Oct2024

   JOB DONE.