     Program PWSCF v.6.7MaX starts on 24Oct2024 at 12:52:19

     R & G space division:  proc/nbgrp/npool/nimage =       4
     Waiting for input...
     Reading input from standard input

     Current dimensions of program PWSCF are:
     Max number of different atomic species (ntypx) = 10
     Max number of k-points (npk) =  40000
     Max angular momentum in pseudopotentials (lmaxx) =  3
     Message from routine iosys:
     wrong startingpot: use default (1)

     Found symmetry operation: I + ( -0.5000 -0.5000  0.0000)
     This is a supercell, fractional translations are disabled

     bravais-lattice index     =            1
     lattice parameter (alat)  =      14.9137  a.u.
     unit-cell volume          =    3317.0944 (a.u.)^3
     number of atoms/cell      =           40
     number of atomic types    =            4
     number of electrons       =       392.00
     number of Kohn-Sham states=          235
     kinetic-energy cutoff     =      10.0000  Ry
     charge density cutoff     =      80.0000  Ry
     scf convergence threshold =      1.0E-05
     mixing beta               =       0.4000
     number of iterations used =            8  plain     mixing
     Exchange-correlation= SLA  PW   PSX  PSC
                           (   1   4  10   8   0   0   0)

     celldm(1)=  14.913719  celldm(2)=   0.000000  celldm(3)=   0.000000
     celldm(4)=   0.000000  celldm(5)=   0.000000  celldm(6)=   0.000000

     crystal axes: (cart. coord. in units of alat)
               a(1) = (   1.000000   0.000000   0.000000 )
               a(2) = (   0.000000   1.000000   0.000000 )
               a(3) = (   0.000000   0.000000   1.000000 )

     reciprocal axes: (cart. coord. in units 2 pi/alat)
               b(1) = (  1.000000  0.000000  0.000000 )
               b(2) = (  0.000000  1.000000  0.000000 )
               b(3) = (  0.000000  0.000000  1.000000 )

     PseudoPot. # 1 for O  read from file:
     /home/aldair1809/Programas/QE/q-e-qe-7.3/pseudo/o_pbesol_v1.2.uspp.F.UPF
     MD5 check sum: 501638753501ef6325af9037351f7734
     Pseudo is Ultrasoft + core correction, Zval =  6.0
     Generated by new atomic code, or converted to UPF format
     Using radial grid of  737 points,  5 beta functions with:
                l(1) =   0
                l(2) =   0
                l(3) =   1
                l(4) =   1
                l(5) =   2
     Q(r) pseudized with  8 coefficients,  rinner =    0.900   0.900   0.900
                                                       0.900   0.900

     PseudoPot. # 2 for Bi read from file:
     /home/aldair1809/Programas/QE/q-e-qe-7.3/pseudo/bi_pbesol_v1.uspp.F.UPF
     MD5 check sum: 588b87649a5c12ad5a0392deab1dcc00
     Pseudo is Ultrasoft + core correction, Zval = 15.0
     Generated by new atomic code, or converted to UPF format
     Using radial grid of  899 points,  6 beta functions with:
                l(1) =   0
                l(2) =   0
                l(3) =   1
                l(4) =   1
                l(5) =   2
                l(6) =   2
     Q(r) pseudized with  6 coefficients,  rinner =    1.000   1.000   1.000
                                                       1.000   1.000

     PseudoPot. # 3 for Fe read from file:
     /home/aldair1809/Programas/QE/q-e-qe-7.3/pseudo/fe_pbesol_v1.5.uspp.F.UPF
     MD5 check sum: a3f38e9a1a818e424be8f97771a26c64
     Pseudo is Ultrasoft + core correction, Zval = 16.0
     Generated by new atomic code, or converted to UPF format
     Using radial grid of  861 points,  6 beta functions with:
                l(1) =   0
                l(2) =   0
                l(3) =   1
                l(4) =   1
                l(5) =   2
                l(6) =   2
     Q(r) pseudized with  8 coefficients,  rinner =    1.000   1.000   1.000
                                                       1.000   1.000

     PseudoPot. # 4 for Fe read from file:
     /home/aldair1809/Programas/QE/q-e-qe-7.3/pseudo/fe_pbesol_v1.5.uspp.F.UPF
     MD5 check sum: a3f38e9a1a818e424be8f97771a26c64
     Pseudo is Ultrasoft + core correction, Zval = 16.0
     Generated by new atomic code, or converted to UPF format
     Using radial grid of  861 points,  6 beta functions with:
                l(1) =   0
                l(2) =   0
                l(3) =   1
                l(4) =   1
                l(5) =   2
                l(6) =   2
     Q(r) pseudized with  8 coefficients,  rinner =    1.000   1.000   1.000
                                                       1.000   1.000

     atomic species   valence    mass     pseudopotential
        O              6.00    15.99940     O ( 1.00)
        Bi            15.00   208.98040     Bi( 1.00)
        Fe1           16.00    55.84500     Fe( 1.00)
        Fe2           16.00    55.84500     Fe( 1.00)

     Starting magnetic structure
     atomic species   magnetization
        O            0.000
        Bi           0.000
        Fe1         -0.800
        Fe2          0.800

     Simplified LDA+U calculation (l_max = 2) with parameters (eV):
     atomic species    L          U    alpha       J0     beta
        Fe1            2     4.5000   0.0000   0.0000   0.0000
        Fe2            2     4.5000   0.0000   0.0000   0.0000

      8 Sym. Ops., with inversion, found

                                    s                        frac. trans.

      isym =  1     identity

 cryst.   s( 1) = (     1          0          0      )
                  (     0          1          0      )
                  (     0          0          1      )

 cart.    s( 1) = (  1.0000000  0.0000000  0.0000000 )
                  (  0.0000000  1.0000000  0.0000000 )
                  (  0.0000000  0.0000000  1.0000000 )

      isym =  2     180 deg rotation - cart. axis [0,0,1]

[...]

      isym =  4     180 deg rotation - cart. axis [1,-1,0]

[...]

      isym =  5     inversion

[...]

      isym =  6     inv. 180 deg rotation - cart. axis [0,0,1]

[...]

      isym =  8     inv. 180 deg rotation - cart. axis [1,-1,0]

 cryst.   s( 8) = (     0          1          0      )
                  (     1          0          0      )
                  (     0          0          1      )

 cart.    s( 8) = (  0.0000000  1.0000000  0.0000000 )
                  (  1.0000000  0.0000000  0.0000000 )
                  (  0.0000000  0.0000000  1.0000000 )

     point group D_2h (mmm)
     there are  8 classes
     the character table:

       E     C2    C2'   C2''  i     s_v   s_v'  s_v''
A_g    1.00  1.00  1.00  1.00  1.00  1.00  1.00  1.00
B_1g   1.00  1.00 -1.00 -1.00  1.00  1.00 -1.00 -1.00
B_2g   1.00 -1.00  1.00 -1.00  1.00 -1.00  1.00 -1.00
B_3g   1.00 -1.00 -1.00  1.00  1.00 -1.00 -1.00  1.00
A_u    1.00  1.00  1.00  1.00 -1.00 -1.00 -1.00 -1.00
B_1u   1.00  1.00 -1.00 -1.00 -1.00 -1.00  1.00  1.00
B_2u   1.00 -1.00  1.00 -1.00 -1.00  1.00 -1.00  1.00
B_3u   1.00 -1.00 -1.00  1.00 -1.00  1.00  1.00 -1.00

     the symmetry operations in each class and the name of the first element:

     E        1
          identity
     C2       2
          180 deg rotation - cart. axis [0,0,1]
     C2'      4
          180 deg rotation - cart. axis [1,-1,0]
     C2''     3
          180 deg rotation - cart. axis [1,1,0]
     i        5
          inversion
     s_v      6
          inv. 180 deg rotation - cart. axis [0,0,1]
     s_v'     8
          inv. 180 deg rotation - cart. axis [1,-1,0]
     s_v''    7
          inv. 180 deg rotation - cart. axis [1,1,0]

   Cartesian axes

     site n.     atom                  positions (alat units)
         1           Bi  tau(   1) = (   0.0000000   0.0000000   0.0000000  )
         2           Bi  tau(   2) = (   0.5000000   0.5000000   0.0000000  )
         3           Bi  tau(   3) = (   0.5000000   0.0000000   0.0000000  )
         4           Bi  tau(   4) = (   0.0000000   0.5000000   0.5000000  )
         5           Bi  tau(   5) = (   0.0000000   0.0000000   0.5000000  )
         6           Bi  tau(   6) = (   0.5000000   0.5000000   0.5000000  )
         7           Bi  tau(   7) = (   0.5000000   0.0000000   0.5000000  )
         8           Bi  tau(   8) = (   0.0000000   0.5000000   0.0000000  )
         9           Fe2 tau(   9) = (   0.2500000   0.2500000   0.2500000  )
        10           Fe2 tau(  10) = (   0.7500000   0.7500000   0.2500000  )
        11           Fe1 tau(  11) = (   0.7500000   0.2500000   0.2500000  )
        12           Fe1 tau(  12) = (   0.2500000   0.7500000   0.7500000  )
        13           Fe2 tau(  13) = (   0.2500000   0.2500000   0.7500000  )
        14           Fe2 tau(  14) = (   0.7500000   0.7500000   0.7500000  )
        15           Fe1 tau(  15) = (   0.7500000   0.2500000   0.7500000  )
        16           Fe1 tau(  16) = (   0.2500000   0.7500000   0.2500000  )
        17           O   tau(  17) = (   0.2500000   0.2500000   0.0000000  )
        18           O   tau(  18) = (   0.2500000   0.0000000   0.2500000  )
        19           O   tau(  19) = (   0.0000000   0.2500000   0.2500000  )
        20           O   tau(  20) = (   0.7500000   0.7500000   0.0000000  )
        21           O   tau(  21) = (   0.7500000   0.2500000   0.0000000  )
        22           O   tau(  22) = (   0.2500000   0.7500000   0.5000000  )
        23           O   tau(  23) = (   0.2500000   0.2500000   0.5000000  )
        24           O   tau(  24) = (   0.7500000   0.7500000   0.5000000  )
        25           O   tau(  25) = (   0.7500000   0.2500000   0.5000000  )
        26           O   tau(  26) = (   0.2500000   0.7500000   0.0000000  )
        27           O   tau(  27) = (   0.7500000   0.5000000   0.2500000  )
        28           O   tau(  28) = (   0.7500000   0.0000000   0.2500000  )
        29           O   tau(  29) = (   0.2500000   0.5000000   0.7500000  )
        30           O   tau(  30) = (   0.2500000   0.0000000   0.7500000  )
        31           O   tau(  31) = (   0.7500000   0.5000000   0.7500000  )
        32           O   tau(  32) = (   0.7500000   0.0000000   0.7500000  )
        33           O   tau(  33) = (   0.2500000   0.5000000   0.2500000  )
        34           O   tau(  34) = (   0.5000000   0.7500000   0.2500000  )
        35           O   tau(  35) = (   0.5000000   0.2500000   0.2500000  )
        36           O   tau(  36) = (   0.0000000   0.7500000   0.7500000  )
        37           O   tau(  37) = (   0.0000000   0.2500000   0.7500000  )
        38           O   tau(  38) = (   0.5000000   0.7500000   0.7500000  )
        39           O   tau(  39) = (   0.5000000   0.2500000   0.7500000  )
        40           O   tau(  40) = (   0.0000000   0.7500000   0.2500000  )

   Crystallographic axes

     site n.     atom                  positions (cryst. coord.)
         1           Bi  tau(   1) = (  0.0000000  0.0000000  0.0000000  )
         2           Bi  tau(   2) = (  0.5000000  0.5000000  0.0000000  )
         3           Bi  tau(   3) = (  0.5000000  0.0000000  0.0000000  )
         4           Bi  tau(   4) = (  0.0000000  0.5000000  0.5000000  )
         5           Bi  tau(   5) = (  0.0000000  0.0000000  0.5000000  )
[...]
  0.486  0.500  0.014  0.000  0.000
  0.486  0.500  0.014  0.000  0.000
  0.000  0.000  0.000  1.000  0.000
  0.027  0.000  0.973  0.000  0.000
    occupations:
  0.306  0.000  0.000 -0.000  0.000
  0.000  0.298 -0.000 -0.000 -0.000
  0.000 -0.000  0.298  0.000 -0.000
 -0.000 -0.000  0.000  0.305 -0.000
  0.000 -0.000 -0.000 -0.000  0.299
atomic mag. moment =   0.00275
atom   14   Tr[ns(na)] (up, down, total) =   1.50941  1.50666  3.01608
   spin  1
    eigenvalues:
  0.299  0.299  0.299  0.306  0.307
    eigenvectors:
  0.000  0.000  0.000  1.000  0.000
  0.001  0.500  0.499  0.000  0.000
  0.001  0.500  0.499  0.000  0.000
  0.000  0.000  0.000  0.000  1.000
  0.999  0.000  0.001  0.000  0.000
    occupations:
  0.306 -0.000 -0.000 -0.000 -0.000
 -0.000  0.299  0.000 -0.000  0.000
 -0.000  0.000  0.299  0.000  0.000
 -0.000 -0.000  0.000  0.307 -0.000
 -0.000  0.000  0.000 -0.000  0.299
   spin  2
    eigenvalues:
  0.298  0.299  0.299  0.305  0.306
    eigenvectors:
  0.000  0.000  0.000  0.000  1.000
  0.486  0.500  0.014  0.000  0.000
  0.486  0.500  0.014  0.000  0.000
  0.000  0.000  0.000  1.000  0.000
  0.027  0.000  0.973  0.000  0.000
    occupations:
  0.306 -0.000 -0.000 -0.000  0.000
 -0.000  0.298 -0.000  0.000  0.000
 -0.000 -0.000  0.298 -0.000  0.000
 -0.000  0.000 -0.000  0.305 -0.000
  0.000  0.000  0.000 -0.000  0.299
atomic mag. moment =   0.00275
atom   15   Tr[ns(na)] (up, down, total) =   1.50807  1.50758  3.01565
   spin  1
    eigenvalues:
  0.299  0.299  0.299  0.306  0.306
    eigenvectors:
  0.000  0.000  0.000  0.000  1.000
  0.450  0.050  0.500  0.000  0.000
  0.450  0.050  0.500  0.000  0.000
  0.000  0.000  0.000  1.000  0.000
  0.101  0.899  0.000  0.000  0.000
    occupations:
  0.306  0.000 -0.000 -0.000  0.000
  0.000  0.299  0.000 -0.000 -0.000
 -0.000  0.000  0.299 -0.000  0.000
 -0.000 -0.000 -0.000  0.306 -0.000
  0.000 -0.000  0.000 -0.000  0.299
   spin  2
    eigenvalues:
  0.298  0.298  0.298  0.306  0.306
    eigenvectors:
  0.000  0.000  0.000  1.000  0.000
  0.004  0.500  0.496  0.000  0.000
  0.004  0.500  0.496  0.000  0.000
  0.000  0.000  0.000  0.000  1.000
  0.992  0.000  0.008  0.000  0.000
    occupations:
  0.306 -0.000  0.000 -0.000  0.000
 -0.000  0.298 -0.000 -0.000  0.000
  0.000 -0.000  0.298 -0.000 -0.000
 -0.000 -0.000 -0.000  0.306 -0.000
  0.000  0.000 -0.000 -0.000  0.298
atomic mag. moment =   0.00050
atom   16   Tr[ns(na)] (up, down, total) =   1.50807  1.50758  3.01565
   spin  1
    eigenvalues:
  0.299  0.299  0.299  0.306  0.306
    eigenvectors:
  0.000  0.000  0.000  0.000  1.000
  0.450  0.050  0.500  0.000  0.000
  0.450  0.050  0.500  0.000  0.000
  0.000  0.000  0.000  1.000  0.000
  0.101  0.899  0.000  0.000  0.000
    occupations:
  0.306  0.000 -0.000 -0.000  0.000
  0.000  0.299  0.000 -0.000 -0.000
 -0.000  0.000  0.299 -0.000  0.000
 -0.000 -0.000 -0.000  0.306 -0.000
  0.000 -0.000  0.000 -0.000  0.299
   spin  2
    eigenvalues:
  0.298  0.298  0.298  0.306  0.306
    eigenvectors:
  0.000  0.000  0.000  1.000  0.000
  0.004  0.500  0.496  0.000  0.000
  0.004  0.500  0.496  0.000  0.000
  0.000  0.000  0.000  0.000  1.000
  0.992  0.000  0.008  0.000  0.000
    occupations:
  0.306 -0.000  0.000 -0.000  0.000
 -0.000  0.298 -0.000 -0.000  0.000
  0.000 -0.000  0.298 -0.000 -0.000
 -0.000 -0.000 -0.000  0.306 -0.000
  0.000  0.000 -0.000 -0.000  0.298
atomic mag. moment =   0.00050
N of occupied +U levels =   24.126914
 --- exit write_ns ---

     negative rho (up, down):  1.405E-01 1.408E-01
 --- in v_hubbard ---
Hubbard energy    2.7864

     Magnetic moment per site:
     atom:    1    charge:   11.9126    magn:   -0.0108    constr:    0.0000
     atom:    2    charge:   11.9128    magn:   -0.0108    constr:    0.0000
     atom:    3    charge:   11.9116    magn:   -0.0108    constr:    0.0000
     atom:    4    charge:   11.9127    magn:   -0.0108    constr:    0.0000
     atom:    5    charge:   11.9117    magn:   -0.0108    constr:    0.0000
     atom:    6    charge:   11.9138    magn:   -0.0108    constr:    0.0000
     atom:    7    charge:   11.9127    magn:   -0.0108    constr:    0.0000
     atom:    8    charge:   11.9116    magn:   -0.0108    constr:    0.0000
     atom:    9    charge:   11.5388    magn:    0.0030    constr:    0.0000
     atom:   10    charge:   11.5388    magn:    0.0030    constr:    0.0000
     atom:   11    charge:   11.5381    magn:   -0.0010    constr:    0.0000
     atom:   12    charge:   11.5381    magn:   -0.0010    constr:    0.0000
     atom:   13    charge:   11.5388    magn:    0.0030    constr:    0.0000
     atom:   14    charge:   11.5388    magn:    0.0030    constr:    0.0000
     atom:   15    charge:   11.5381    magn:   -0.0010    constr:    0.0000
     atom:   16    charge:   11.5381    magn:   -0.0010    constr:    0.0000
     atom:   17    charge:    5.0661    magn:   -0.0191    constr:    0.0000
     atom:   18    charge:    5.0663    magn:   -0.0197    constr:    0.0000
     atom:   19    charge:    5.0663    magn:   -0.0197    constr:    0.0000
     atom:   20    charge:    5.0661    magn:   -0.0191    constr:    0.0000
     atom:   21    charge:    5.0666    magn:   -0.0193    constr:    0.0000
     atom:   22    charge:    5.0692    magn:   -0.0193    constr:    0.0000
     atom:   23    charge:    5.0696    magn:   -0.0190    constr:    0.0000
     atom:   24    charge:    5.0696    magn:   -0.0190    constr:    0.0000
     atom:   25    charge:    5.0692    magn:   -0.0193    constr:    0.0000
     atom:   26    charge:    5.0666    magn:   -0.0193    constr:    0.0000
     atom:   27    charge:    5.0693    magn:   -0.0197    constr:    0.0000
     atom:   28    charge:    5.0663    magn:   -0.0197    constr:    0.0000
     atom:   29    charge:    5.0693    magn:   -0.0197    constr:    0.0000
     atom:   30    charge:    5.0663    magn:   -0.0197    constr:    0.0000
     atom:   31    charge:    5.0693    magn:   -0.0197    constr:    0.0000
     atom:   32    charge:    5.0663    magn:   -0.0197    constr:    0.0000
     atom:   33    charge:    5.0693    magn:   -0.0197    constr:    0.0000
     atom:   34    charge:    5.0693    magn:   -0.0197    constr:    0.0000
     atom:   35    charge:    5.0693    magn:   -0.0197    constr:    0.0000
     atom:   36    charge:    5.0663    magn:   -0.0197    constr:    0.0000
     atom:   37    charge:    5.0663    magn:   -0.0197    constr:    0.0000
     atom:   38    charge:    5.0693    magn:   -0.0197    constr:    0.0000
     atom:   39    charge:    5.0693    magn:   -0.0197    constr:    0.0000
     atom:   40    charge:    5.0663    magn:   -0.0197    constr:    0.0000

     End of self-consistent calculation

 ------ SPIN UP ------------

          k = 0.0000 0.0000 0.0000 (  1791 PWs)   bands (ev):

  -123.9425-121.1161-121.1133-121.1105-119.9106-119.9078-119.9050-118.4549
   -67.3101 -67.3100 -67.3100 -61.6210 -61.6208 -61.6208 -61.6208 -61.6207
   -61.6206 -60.7505 -60.7504 -60.7504 -58.6678 -58.6676 -58.6676 -58.6676
   -58.6676 -58.6675 -55.8431 -55.8430 -55.8429 -55.4372 -55.4372 -55.4371
   -11.9873 -11.2565 -11.2563 -11.2560 -11.1539 -11.1535 -11.1427 -11.1427
   -11.1426 -10.9746 -10.9740 -10.9737 -10.6586 -10.6579 -10.6579 -10.6342
   -10.6339 -10.6332 -10.6332 -10.6332 -10.6332 -10.6154 -10.6152 -10.5589
   -10.5589 -10.5585 -10.4726 -10.4724 -10.4724 -10.4704 -10.4704 -10.4700
   -10.4370 -10.4367 -10.4362 -10.4026 -10.4026 -10.4023 -10.3952 -10.3951
   -10.3950 -10.3894 -10.3893 -10.3892 -10.3354 -10.3351 -10.3346 -10.2115
   -10.2106 -10.2106 -10.0924 -10.0923 -10.0921  -9.8090  -9.8088  -9.7191
    -9.7190  -9.7189  -9.7170  -9.7170  -9.7165  -9.6094  -9.6094  -9.6093
     2.1376   2.1378   2.1381   2.4586   2.4589   2.4591   2.9480   3.4163
     4.8542   4.8543   4.8545   6.4575   6.7100   6.7106   6.7106   6.9729
     6.9734   6.9737   7.2218   7.2227   7.2244   7.2391   7.2393   7.2396
     7.3854   7.3854   7.3855   7.7716   7.7728   7.7741   9.0520   9.0520
     9.0526   9.0527   9.0530   9.0532   9.5486   9.5487   9.5488   9.5489
     9.5489   9.5489   9.8466   9.8467   9.8468   9.8468   9.8470   9.8470
     9.9502   9.9502   9.9506   9.9507   9.9508   9.9514  10.0434  10.0442
    10.2713  10.2717  10.2718  10.4099  10.4102  10.5073  10.5073  10.5079
    10.7883  10.7884  10.7889  11.0502  11.0505  11.0510  11.6254  11.6258
    11.6258  12.1604  12.1676  12.1734  12.4961  12.4965  12.4970  12.8103
    12.8107  12.8107  12.8109  12.8111  12.8111  12.9165  12.9169  12.9172
    12.9174  12.9175  12.9183  13.3107  13.3142  13.3184  13.6170  13.6175
    13.6176  13.6467  13.6467  13.6471  13.7949  13.7950  13.7983  14.4556
    14.4568  14.4593  15.4434  15.4445  15.4453  15.7081  15.7908  15.7912
    15.7917  15.9135  15.9148  15.9148  16.3224  16.3232  16.3232  16.3234
    16.3235  16.3248  16.5910  16.5913  16.5916  16.8997  16.8998  16.9003
    16.9004  16.9009  16.9012  17.5035  17.5036  17.5037  17.5040  18.3732
    18.3745  18.3745  21.4398

     occupation numbers
     1.0000   1.0000   1.0000   1.0000   1.0000   1.0000   1.0000   1.0000
     1.0000   1.0000   1.0000   1.0000   1.0000   1.0000   1.0000   1.0000
     1.0000   1.0000   1.0000   1.0000   1.0000   1.0000   1.0000   1.0000
     1.0000   1.0000   1.0000   1.0000   1.0000   1.0000   1.0000   1.0000
     1.0000   1.0000   1.0000   1.0000   1.0000   1.0000   1.0000   1.0000
     1.0000   1.0000   1.0000   1.0000   1.0000   1.0000   1.0000   1.0000
     1.0000   1.0000   1.0000   1.0000   1.0000   1.0000   1.0000   1.0000
     1.0000   1.0000   1.0000   1.0000   1.0000   1.0000   1.0000   1.0000
     1.0000   1.0000   1.0000   1.0000   1.0000   1.0000   1.0000   1.0000
     1.0000   1.0000   1.0000   1.0000   1.0000   1.0000   1.0000   1.0000
     1.0000   1.0000   1.0000   1.0000   1.0000   1.0000   1.0000   1.0000
     1.0000   1.0000   1.0000   1.0000   1.0000   1.0000   1.0000   1.0000
     1.0000   1.0000   1.0000   1.0000   1.0000   1.0000   1.0000   1.0000
     1.0000   1.0000   1.0000   1.0000   1.0000   1.0000   1.0000   1.0000
     1.0000   1.0000   1.0000   1.0000   1.0000   1.0000   1.0000   1.0000
     1.0000   1.0000   1.0000   1.0000   1.0000   1.0000   1.0000   1.0000
     1.0000   1.0000   1.0000   1.0000   1.0000   1.0000   1.0000   1.0000
     1.0000   1.0000   1.0000   1.0000   1.0000   1.0000   1.0000   1.0000
     1.0000   1.0000   1.0000   1.0000   1.0000   1.0000   1.0000   1.0000
     1.0000   1.0000   1.0000   1.0000   1.0000   1.0000   1.0000   1.0000
     1.0000   1.0000   1.0000   1.0000   1.0000   1.0000   1.0000   1.0000
     1.0000   1.0000   1.0000   1.0000   1.0000   1.0000   1.0000   1.0000
     1.0000   1.0000   1.0000   1.0000   1.0000   1.0000   1.0000   1.0000
     1.0000   1.0000   1.0000   1.0001   1.0002   1.0002   0.9545   0.9532
     0.9529   0.8515   0.8512   0.8495   0.0702   0.0698   0.0599  -0.0000
    -0.0000  -0.0000  -0.0000  -0.0000  -0.0000  -0.0000  -0.0000  -0.0000
    -0.0000  -0.0000  -0.0000  -0.0000  -0.0000  -0.0000  -0.0000  -0.0000
    -0.0000  -0.0000  -0.0000  -0.0000  -0.0000  -0.0000  -0.0000  -0.0000
    -0.0000  -0.0000  -0.0000  -0.0000  -0.0000  -0.0000  -0.0000  -0.0000
    -0.0000  -0.0000  -0.0000

 ------ SPIN DOWN ----------

          k = 0.0000 0.0000 0.0000 (  1791 PWs)   bands (ev):

  -123.9432-121.1147-121.1139-121.1130-119.9091-119.9083-119.9074-118.4553
   -67.3104 -67.3100 -67.3099 -61.6221 -61.6206 -61.6206 -61.6206 -61.6205
   -61.6199 -60.7507 -60.7503 -60.7502 -58.6687 -58.6673 -58.6672 -58.6672
   -58.6672 -58.6665 -55.8431 -55.8427 -55.8426 -55.4371 -55.4367 -55.4366
   -12.0201 -11.2900 -11.2898 -11.2896 -11.1811 -11.1806 -11.1473 -11.1471
   -11.1471 -11.0083 -11.0079 -11.0074 -10.6865 -10.6864 -10.6858 -10.6687
   -10.6687 -10.6687 -10.6687 -10.6686 -10.6673 -10.6280 -10.6277 -10.5940
   -10.5937 -10.5934 -10.4779 -10.4775 -10.4773 -10.4754 -10.4753 -10.4752
   -10.4422 -10.4422 -10.4414 -10.4080 -10.4078 -10.4077 -10.4003 -10.4002
   -10.3998 -10.3950 -10.3949 -10.3946 -10.3408 -10.3408 -10.3400 -10.2460
   -10.2460 -10.2453 -10.1046 -10.1044 -10.1042  -9.8148  -9.8144  -9.7248
    -9.7244  -9.7242  -9.7224  -9.7223  -9.7222  -9.6153  -9.6150  -9.6150
     2.1184   2.1186   2.1188   2.4390   2.4394   2.4394   2.9293   3.3990
     4.8567   4.8567   4.8568   6.4470   6.6845   6.6846   6.6852   6.9611
     6.9615   6.9620   7.2145   7.2160   7.2173   7.2236   7.2238   7.2239
     7.3603   7.3604   7.3605   7.7607   7.7621   7.7632   9.0203   9.0205
     9.0207   9.0208   9.0214   9.0214   9.5255   9.5255   9.5256   9.5256
     9.5257   9.5258   9.8183   9.8186   9.8187   9.8187   9.8188   9.8188
     9.9311   9.9324   9.9324   9.9326   9.9327   9.9336  10.0435  10.0440
    10.2550  10.2550  10.2555  10.3991  10.3992  10.5097  10.5097  10.5102
    10.7471  10.7474  10.7475  11.0111  11.0116  11.0116  11.5986  11.5986
    11.5991  12.1616  12.1669  12.1730  12.4524  12.4529  12.4532  12.7780
    12.7780  12.7783  12.7784  12.7786  12.7786  12.8972  12.8990  12.8990
    12.8993  12.8993  12.9007  13.3025  13.3064  13.3089  13.5828  13.5831
    13.5832  13.6031  13.6035  13.6036  13.7772  13.7802  13.7804  14.4556
    14.4582  14.4599  15.4238  15.4249  15.4259  15.7042  15.7780  15.7783
    15.7788  15.9020  15.9020  15.9033  16.3168  16.3192  16.3193  16.3194
    16.3195  16.3215  16.5731  16.5733  16.5737  16.8682  16.8687  16.8690
    16.8691  16.8698  16.8699  17.4767  17.4775  17.4776  17.4778  17.4794
    18.3479  18.3479  18.3493

     occupation numbers
     1.0000   1.0000   1.0000   1.0000   1.0000   1.0000   1.0000   1.0000
     1.0000   1.0000   1.0000   1.0000   1.0000   1.0000   1.0000   1.0000
     1.0000   1.0000   1.0000   1.0000   1.0000   1.0000   1.0000   1.0000
     1.0000   1.0000   1.0000   1.0000   1.0000   1.0000   1.0000   1.0000
     1.0000   1.0000   1.0000   1.0000   1.0000   1.0000   1.0000   1.0000
     1.0000   1.0000   1.0000   1.0000   1.0000   1.0000   1.0000   1.0000
     1.0000   1.0000   1.0000   1.0000   1.0000   1.0000   1.0000   1.0000
     1.0000   1.0000   1.0000   1.0000   1.0000   1.0000   1.0000   1.0000
     1.0000   1.0000   1.0000   1.0000   1.0000   1.0000   1.0000   1.0000
     1.0000   1.0000   1.0000   1.0000   1.0000   1.0000   1.0000   1.0000
     1.0000   1.0000   1.0000   1.0000   1.0000   1.0000   1.0000   1.0000
     1.0000   1.0000   1.0000   1.0000   1.0000   1.0000   1.0000   1.0000
     1.0000   1.0000   1.0000   1.0000   1.0000   1.0000   1.0000   1.0000
     1.0000   1.0000   1.0000   1.0000   1.0000   1.0000   1.0000   1.0000
     1.0000   1.0000   1.0000   1.0000   1.0000   1.0000   1.0000   1.0000
     1.0000   1.0000   1.0000   1.0000   1.0000   1.0000   1.0000   1.0000
     1.0000   1.0000   1.0000   1.0000   1.0000   1.0000   1.0000   1.0000
     1.0000   1.0000   1.0000   1.0000   1.0000   1.0000   1.0000   1.0000
     1.0000   1.0000   1.0000   1.0000   1.0000   1.0000   1.0000   1.0000
     1.0000   1.0000   1.0000   1.0000   1.0000   1.0000   1.0000   1.0000
     1.0000   1.0000   1.0000   1.0000   1.0000   1.0000   1.0000   1.0000
     1.0000   1.0000   1.0000   1.0000   1.0000   1.0000   1.0000   1.0000
     1.0000   1.0000   1.0000   1.0000   1.0000   1.0000   1.0000   1.0000
     1.0000   1.0000   1.0000   1.0001   1.0001   1.0001   1.0172   1.0169
     1.0168   0.9867   0.9859   0.9857   0.1340   0.1220   0.1212  -0.0000
    -0.0000  -0.0000  -0.0000  -0.0000  -0.0000  -0.0000  -0.0000  -0.0000
    -0.0000  -0.0000  -0.0000  -0.0000  -0.0000  -0.0000  -0.0000  -0.0000
    -0.0000  -0.0000  -0.0000  -0.0000  -0.0000  -0.0000  -0.0000  -0.0000
    -0.0000  -0.0000  -0.0000  -0.0000  -0.0000  -0.0000  -0.0000  -0.0000
    -0.0000  -0.0000  -0.0000

     the Fermi energy is    13.7102 ev

!    total energy              =   -3963.89266252 Ry
     estimated scf accuracy    <       0.00000787 Ry
     smearing contrib. (-TS)   =      -0.00239900 Ry
     internal energy E=F+TS    =   -3963.89026351 Ry

     The total energy is F=E-TS. E is the sum of the following terms:
     one-electron contribution =   -1072.35745799 Ry
     hartree contribution      =     688.93515645 Ry
     xc contribution           =    -845.65061967 Ry
     ewald contribution        =   -2737.60377653 Ry
     Hubbard energy            =       2.78643423 Ry

     total magnetization       =    -0.77 Bohr mag/cell
     absolute magnetization    =     0.82 Bohr mag/cell

     convergence has been achieved in  16 iterations

     Writing output data file /home/aldair1809/Documentos/QE/4BFO/temp/scf/bifeo3.save/

     General routines

     Parallel routines

     Hubbard U routines

   This run was terminated on:  12:55:11  24Oct2024

   JOB DONE.