     Program PWSCF v.6.7MaX starts on 29Sep2024 at 21: 7:27

     R & G space division:  proc/nbgrp/npool/nimage =       4
     Waiting for input...
     Reading input from standard input

     Current dimensions of program PWSCF are:
     Max number of different atomic species (ntypx) = 10
     Max number of k-points (npk) =  40000
     Max angular momentum in pseudopotentials (lmaxx) =  3
     Message from routine iosys:
     wrong startingpot: use default (1)

     Message from routine setup:
     using ibrav=0 with symmetry is DISCOURAGED, use correct ibrav instead

     bravais-lattice index     =            0
     lattice parameter (alat)  =      10.5468  a.u.
     unit-cell volume          =    2535.5110 (a.u.)^3
     number of atoms/cell      =           30
     number of atomic types    =            4
     number of electrons       =       294.00
     number of Kohn-Sham states=          200
     kinetic-energy cutoff     =      25.0000  Ry
     charge density cutoff     =     100.0000  Ry
     scf convergence threshold =      1.0E-03
     mixing beta               =       0.2000
     number of iterations used =            8  plain     mixing
     Exchange-correlation=  SLA  PW   PBX  PBC
                           (   1   4   3   4   0   0   0)

     celldm(1)=  10.546849  celldm(2)=   0.000000  celldm(3)=   0.000000
     celldm(4)=   0.000000  celldm(5)=   0.000000  celldm(6)=   0.000000

     crystal axes: (cart. coord. in units of alat)
               a(1) = (   1.000000  -0.000000  -0.000000 )
               a(2) = (  -0.500000   0.866025  -0.000000 )
               a(3) = (   0.000000  -0.000000   2.495552 )

     reciprocal axes: (cart. coord. in units 2 pi/alat)
               b(1) = (  1.000000  0.577350  0.000000 )
               b(2) = (  0.000000  1.154701  0.000000 )
               b(3) = (  0.000000  0.000000  0.400713 )

     PseudoPot. # 1 for O  read from file:
     /home/aldair1809/Programas/QE/q-e-qe-7.3/pseudo/o_pbe_v1.2.uspp.F.UPF
     MD5 check sum: 734c27235a0248c51dbae37a1fbe46ec
     Pseudo is Ultrasoft + core correction, Zval =  6.0
     Generated by new atomic code, or converted to UPF format
     Using radial grid of  737 points,  5 beta functions with:
                l(1) =   0
                l(2) =   0
                l(3) =   1
                l(4) =   1
                l(5) =   2
     Q(r) pseudized with  8 coefficients,  rinner =    0.900   0.900   0.900
                                                       0.900   0.900

     PseudoPot. # 2 for Bi read from file:
     /home/aldair1809/Programas/QE/q-e-qe-7.3/pseudo/bi_pbe_v1.uspp.F.UPF
     MD5 check sum: cceb9f28ec65b6d7ff33140f5b0b1758
     Pseudo is Ultrasoft + core correction, Zval = 15.0
     Generated by new atomic code, or converted to UPF format
     Using radial grid of  899 points,  6 beta functions with:
                l(1) =   0
                l(2) =   0
                l(3) =   1
                l(4) =   1
                l(5) =   2
                l(6) =   2
     Q(r) pseudized with  6 coefficients,  rinner =    1.000   1.000   1.000
                                                       1.000   1.000

     PseudoPot. # 3 for Fe read from file:
     /home/aldair1809/Programas/QE/q-e-qe-7.3/pseudo/fe_pbe_v1.5.uspp.F.UPF
     MD5 check sum: a130daea23fe5165f5d574ae7f82ed95
     Pseudo is Ultrasoft + core correction, Zval = 16.0
     Generated by new atomic code, or converted to UPF format
     Using radial grid of  861 points,  6 beta functions with:
                l(1) =   0
                l(2) =   0
                l(3) =   1
                l(4) =   1
                l(5) =   2
                l(6) =   2
     Q(r) pseudized with  8 coefficients,  rinner =    1.000   1.000   1.000
                                                       1.000   1.000

     PseudoPot. # 4 for Fe read from file:
     /home/aldair1809/Programas/QE/q-e-qe-7.3/pseudo/fe_pbe_v1.5.uspp.F.UPF
     MD5 check sum: a130daea23fe5165f5d574ae7f82ed95
     Pseudo is Ultrasoft + core correction, Zval = 16.0
     Generated by new atomic code, or converted to UPF format
     Using radial grid of  861 points,  6 beta functions with:
                l(1) =   0
                l(2) =   0
                l(3) =   1
                l(4) =   1
                l(5) =   2
                l(6) =   2
     Q(r) pseudized with  8 coefficients,  rinner =    1.000   1.000   1.000
                                                       1.000   1.000

     atomic species   valence    mass     pseudopotential
        O              6.00    15.99940     O ( 1.00)
        Bi            15.00   208.98040     Bi( 1.00)
        Fe1           16.00    55.84500     Fe( 1.00)
        Fe2           16.00    55.84500     Fe( 1.00)

     Starting magnetic structure
     atomic species   magnetization
        O            0.000
        Bi           0.000
        Fe1         -0.800
        Fe2          0.800

      3 Sym. Ops. (no inversion) found

                                    s                        frac. trans.

      isym =  1     identity

 cryst.   s( 1) = (     1          0          0      )
                  (     0          1          0      )
                  (     0          0          1      )

 cart.    s( 1) = (  1.0000000 -0.0000000  0.0000000 )
                  (  0.0000000  1.0000000  0.0000000 )
                  (  0.0000000  0.0000000  1.0000000 )

      isym =  2     120 deg rotation - cryst. axis [0,0,1]

[...]

      isym =  3     120 deg rotation - cryst. axis [0,0,-1]

 cryst.   s( 3) = (    -1         -1          0      )
                  (     1          0          0      )
                  (     0          0          1      )

 cart.    s( 3) = ( -0.5000000  0.8660254  0.0000000 )
                  ( -0.8660254 -0.5000000  0.0000000 )
                  (  0.0000000  0.0000000  1.0000000 )

   Cartesian axes

     site n.     atom                  positions (alat units)
         1           Fe1 tau(   1) = (   0.0000000   0.0000000   1.9384582  )
         2           Fe1 tau(   2) = (  -0.0000005   0.5773506   2.3615556  )
         3           Fe1 tau(   3) = (   0.5000005   0.2886748   1.5200787  )
         4           Fe2 tau(   4) = (   0.5000005   0.2886748   0.2722626  )
         5           Fe2 tau(   5) = (   0.0000000   0.0000000   0.6907071  )
         6           Fe2 tau(   6) = (  -0.0000005   0.5773506   1.1137452  )
         7           Bi  tau(   7) = (   0.5000005   0.2886748   2.0843143  )
         8           Bi  tau(   8) = (  -0.0000005   0.5773506   1.6713980  )
         9           Bi  tau(   9) = (  -0.0000005   0.5773506   0.4235448  )
        10           Bi  tau(  10) = (   0.0000000   0.0000000   0.0002821  )
        11           Bi  tau(  11) = (   0.0000000   0.0000000   1.2481025  )
        12           Bi  tau(  12) = (   0.5000005   0.2886748   0.8364865  )
        13           O   tau(  13) = (  -0.3105904   0.6551932   2.2011299  )
        14           O   tau(  14) = (   0.0878817   0.2694488   2.2011299  )
        15           O   tau(  15) = (   0.2227102   0.8074080   2.2011299  )
        16           O   tau(  16) = (   0.4087504   0.5589755   1.7846473  )
        17           O   tau(  17) = (   0.3115373   0.0745013   1.7846473  )
        18           O   tau(  18) = (   0.7797108   0.2325494   1.7846473  )
        19           O   tau(  19) = (   0.6884743   0.0745026   0.5368244  )
        20           O   tau(  20) = (   0.5912412   0.5589858   0.5368244  )
        21           O   tau(  21) = (   0.2202830   0.2325379   0.5368244  )
        22           O   tau(  22) = (  -0.0823010   0.8482993   0.1166193  )
        23           O   tau(  23) = (  -0.1934983   0.3706010   0.1166193  )
        24           O   tau(  24) = (   0.2757993   0.5131505   0.1166193  )
        25           O   tau(  25) = (   0.1934855   0.3705936   1.3644430  )
        26           O   tau(  26) = (   0.0823138   0.8482919   1.3644430  )
        27           O   tau(  27) = (  -0.2757993   0.5131653   1.3644430  )
        28           O   tau(  28) = (  -0.0878870   0.2694458   0.9533686  )
        29           O   tau(  29) = (   0.3105971   0.6551893   0.9533686  )
        30           O   tau(  30) = (  -0.2227086   0.8074149   0.9533686  )

   Crystallographic axes

     site n.     atom                  positions (cryst. coord.)
         1           Fe1 tau(   1) = (  0.0000000  0.0000000  0.7767652  )
         2           Fe1 tau(   2) = (  0.3333330  0.6666670  0.9463058  )
         3           Fe1 tau(   3) = (  0.6666670  0.3333330  0.6091152  )
         4           Fe2 tau(   4) = (  0.6666670  0.3333330  0.1090991  )
         5           Fe2 tau(   5) = (  0.0000000  0.0000000  0.2767753  )
         6           Fe2 tau(   6) = (  0.3333330  0.6666670  0.4462921  )
         7           Bi  tau(   7) = (  0.6666670  0.3333330  0.8352117  )
         8           Bi  tau(   8) = (  0.3333330  0.6666670  0.6697508  )
         9           Bi  tau(   9) = (  0.3333330  0.6666670  0.1697199  )
        10           Bi  tau(  10) = (  0.0000000  0.0000000  0.0001130  )
        11           Bi  tau(  11) = (  0.0000000  0.0000000  0.5001308  )
        12           Bi  tau(  12) = (  0.6666670  0.3333330  0.3351910  )
        13           O   tau(  13) = (  0.0676856  0.7565520  0.8820212  )
        14           O   tau(  14) = (  0.2434480  0.3111326  0.8820212  )
        15           O   tau(  15) = (  0.6888674  0.9323144  0.8820212  )
        16           O   tau(  16) = (  0.7314750  0.6454493  0.7151312  )
        17           O   tau(  17) = (  0.3545507  0.0860267  0.7151312  )
        18           O   tau(  18) = (  0.9139733  0.2685250  0.7151312  )
        19           O   tau(  19) = (  0.7314884  0.0860282  0.2151125  )
        20           O   tau(  20) = (  0.9139718  0.6454612  0.2151125  )
        21           O   tau(  21) = (  0.3545388  0.2685116  0.2151125  )
        22           O   tau(  22) = (  0.4074649  0.9795317  0.0467309  )
        23           O   tau(  23) = (  0.0204683  0.4279331  0.0467309  )
        24           O   tau(  24) = (  0.5720669  0.5925351  0.0467309  )
        25           O   tau(  25) = (  0.4074478  0.4279246  0.5467499  )
        26           O   tau(  26) = (  0.5720754  0.9795232  0.5467499  )
        27           O   tau(  27) = (  0.0204768  0.5925522  0.5467499  )
        28           O   tau(  28) = (  0.0676775  0.3111292  0.3820271  )
        29           O   tau(  29) = (  0.6888708  0.7565474  0.3820271  )
        30           O   tau(  30) = (  0.2434526  0.9323225  0.3820271  )

     number of k points=     6  Gaussian smearing, width (Ry)=  0.0100
                       cart. coord. in units 2pi/alat
        k(    1) = (   0.0000000   0.0000000   0.0000000), wk =   0.0555556
        k(    2) = (   0.0000000   0.0000000  -0.2003565), wk =   0.0555556
        k(    3) = (   0.0000000   0.3849002   0.0000000), wk =   0.3333333
        k(    4) = (   0.0000000   0.3849002  -0.2003565), wk =   0.3333333
        k(    5) = (   0.3333333   0.5773503   0.0000000), wk =   0.1111111
        k(    6) = (   0.3333333   0.5773503  -0.2003565), wk =   0.1111111

                       cryst. coord.
        k(    1) = (   0.0000000   0.0000000   0.0000000), wk =   0.0555556
        k(    2) = (   0.0000000   0.0000000  -0.5000000), wk =   0.0555556
        k(    3) = (   0.0000000   0.3333333   0.0000000), wk =   0.3333333
        k(    4) = (   0.0000000   0.3333333  -0.5000000), wk =   0.3333333
        k(    5) = (   0.3333333   0.3333333   0.0000000), wk =   0.1111111
        k(    6) = (   0.3333333   0.3333333  -0.5000000), wk =   0.1111111

     Check: negative core charge=   -0.000640
     Generating pointlists ...
     new r_m :   0.1458 (alat units)  1.5374 (a.u.) for type    1
     new r_m :   0.1687 (alat units)  1.7788 (a.u.) for type    2
     new r_m :   0.1458 (alat units)  1.5374 (a.u.) for type    3
     new r_m :   0.1458 (alat units)  1.5374 (a.u.) for type    4

     Initial potential from superposition of free atoms

     starting charge  281.99969, renormalised to  294.00000

     negative rho (up, down):  1.188E-01 1.188E-01
     Starting wfcs are  204 randomized atomic wfcs

     Self-consistent Calculation

     iteration #  1     ecut=    25.00 Ry     beta= 0.20
     CG style diagonalization
     ethr =  1.00E-02,  avg # of iterations =  2.6

     negative rho (up, down):  1.151E-01 1.151E-01

     total energy              =   -3187.44150130 Ry
     estimated scf accuracy    <      22.91825040 Ry

     total magnetization       =    -0.00 Bohr mag/cell
     absolute magnetization    =    30.61 Bohr mag/cell

[...]

     iteration #  9     ecut=    25.00 Ry     beta= 0.20
     CG style diagonalization
     c_bands:  1 eigenvalues not converged
     c_bands:  1 eigenvalues not converged
     ethr =  5.96E-05,  avg # of iterations =  3.3

[...]

     iteration # 14     ecut=    25.00 Ry     beta= 0.20
     CG style diagonalization
     c_bands:  1 eigenvalues not converged
     c_bands:  1 eigenvalues not converged
     c_bands:  1 eigenvalues not converged
     c_bands:  1 eigenvalues not converged
     c_bands:  1 eigenvalues not converged
     c_bands:  1 eigenvalues not converged
     ethr =  8.48E-07,  avg # of iterations =  3.2

[...]

     total energy              =   -3193.12554232 Ry
     estimated scf accuracy    <       0.00128442 Ry

[...]

     iteration # 15     ecut=    25.00 Ry     beta= 0.20
     CG style diagonalization
     ethr =  4.37E-07,  avg # of iterations =  3.1

     negative rho (up, down):  1.116E-01 1.116E-01

     Magnetic moment per site:
     atom:    1    charge:   13.0474    magn:   -3.7124    constr:    0.0000
     atom:    2    charge:   13.0514    magn:   -3.5997    constr:    0.0000
     atom:    3    charge:   13.0515    magn:   -3.6024    constr:    0.0000
     atom:    4    charge:   13.0578    magn:    3.5972    constr:    0.0000
     atom:    5    charge:   13.0420    magn:    3.7161    constr:    0.0000
     atom:    6    charge:   13.0512    magn:    3.6001    constr:    0.0000
     atom:    7    charge:   10.4874    magn:   -0.0162    constr:    0.0000
     atom:    8    charge:   10.4869    magn:   -0.0128    constr:    0.0000
     atom:    9    charge:   10.4869    magn:    0.0127    constr:    0.0000
     atom:   10    charge:   10.4897    magn:   -0.0040    constr:    0.0000
     atom:   11    charge:   10.4897    magn:    0.0040    constr:    0.0000
     atom:   12    charge:   10.4873    magn:    0.0161    constr:    0.0000
     atom:   13    charge:    5.4005    magn:   -0.2179    constr:    0.0000
     atom:   14    charge:    5.4005    magn:   -0.2179    constr:    0.0000
     atom:   15    charge:    5.4005    magn:   -0.2179    constr:    0.0000
     atom:   16    charge:    5.3976    magn:   -0.2303    constr:    0.0000
     atom:   17    charge:    5.3976    magn:   -0.2303    constr:    0.0000
     atom:   18    charge:    5.3976    magn:   -0.2303    constr:    0.0000
     atom:   19    charge:    5.3979    magn:    0.2299    constr:    0.0000
     atom:   20    charge:    5.3979    magn:    0.2299    constr:    0.0000
     atom:   21    charge:    5.3979    magn:    0.2299    constr:    0.0000
     atom:   22    charge:    5.3908    magn:    0.0692    constr:    0.0000
     atom:   23    charge:    5.3908    magn:    0.0692    constr:    0.0000
     atom:   24    charge:    5.3908    magn:    0.0692    constr:    0.0000
     atom:   25    charge:    5.3914    magn:   -0.0685    constr:    0.0000
     atom:   26    charge:    5.3914    magn:   -0.0685    constr:    0.0000
     atom:   27    charge:    5.3914    magn:   -0.0685    constr:    0.0000
     atom:   28    charge:    5.4002    magn:    0.2181    constr:    0.0000
     atom:   29    charge:    5.4002    magn:    0.2181    constr:    0.0000
     atom:   30    charge:    5.4002    magn:    0.2181    constr:    0.0000

     End of self-consistent calculation

 ------ SPIN UP ------------

          k = 0.0000 0.0000 0.0000 (  5411 PWs)   bands (ev):

   -79.6061 -79.4437 -79.3321 -74.6860 -74.6578 -74.4968 -45.4584 -45.4089
   -45.4089 -45.2669 -45.2669 -45.2615 -45.2301 -45.1226 -45.1226 -40.6950
   -40.6609 -40.6419 -40.6419 -40.6111 -40.6110 -40.5077 -40.4602 -40.4602
   -11.2777 -11.2777 -11.2408 -11.2408 -11.2214 -11.2214 -11.1920 -11.1773
   -11.1658 -11.1658 -11.1628 -11.1628 -11.1528 -11.1528 -11.1303 -11.1168
   -11.1073 -11.1073 -11.0996 -11.0995 -11.0953 -11.0953 -11.0869 -11.0862
   -11.0862 -11.0793 -11.0604 -11.0604 -11.0496 -11.0496  -7.9885  -7.6113
    -7.5147  -6.7592  -6.7092  -6.3139  -6.3138  -6.1887  -6.1887  -6.1874
    -6.0865  -6.0864  -5.9912  -5.9911  -5.8339  -5.8339  -5.6656  -5.6656
     0.8099   1.0467   1.1250   1.8962   2.0300   2.7794   4.9503   4.9503
     5.0667   5.4477   5.4477   5.5488   5.5509   5.5509   5.7328   5.7468
     5.7468   5.9550   6.0203   6.0203   6.2150   6.2151   6.2716   6.4288
     6.4288   6.4313   6.5233   6.7417   6.7417   7.0439   7.0439   7.1774
     7.3376   7.6238   7.6238   7.7411   7.8606   7.8606   7.9788   7.9788
     8.1668   8.3139   8.3489   8.3489   8.5216   8.5216   8.5237   8.6447
     8.6741   8.6742   8.8285   8.8285   8.9795   8.9796   9.3152   9.3153
     9.3638   9.3639   9.3667   9.4234   9.4234   9.7667   9.7668  10.0898
    10.2024  10.2024  10.2517  10.4282  10.5229  10.6567  10.7307  10.8957
    10.8958  11.5407  11.5407  12.0549  12.0549  12.2890  12.2890  12.2913
    12.3596  12.3782  12.4623  12.4623  13.2122  13.2122  13.8525  13.8525
    14.3923  14.3923  15.0595  15.1764  15.2784  15.3256  16.3715  16.3715
    16.5054  16.5054  16.5505  16.5506  16.8443  16.9044  17.0975  17.0975
    17.1741  17.1741  17.5850  17.5850  18.3045  19.6052  19.8284  19.9946
    20.6997  20.6997  20.9826  21.0604  21.7018  21.7020  21.8073  21.8073
    22.1317  22.1317  22.8685  23.0402  23.0543  23.0553  23.2041  23.7388

     occupation numbers
     1.0000   1.0000   1.0000   1.0000   1.0000   1.0000   1.0000   1.0000
     1.0000   1.0000   1.0000   1.0000   1.0000   1.0000   1.0000   1.0000
     1.0000   1.0000   1.0000   1.0000   1.0000   1.0000   1.0000   1.0000
     1.0000   1.0000   1.0000   1.0000   1.0000   1.0000   1.0000   1.0000
     1.0000   1.0000   1.0000   1.0000   1.0000   1.0000   1.0000   1.0000
     1.0000   1.0000   1.0000   1.0000   1.0000   1.0000   1.0000   1.0000
     1.0000   1.0000   1.0000   1.0000   1.0000   1.0000   1.0000   1.0000
     1.0000   1.0000   1.0000   1.0000   1.0000   1.0000   1.0000   1.0000
     1.0000   1.0000   1.0000   1.0000   1.0000   1.0000   1.0000   1.0000
     1.0000   1.0000   1.0000   1.0000   1.0000   1.0000   1.0000   1.0000
     1.0000   1.0000   1.0000   1.0000   1.0000   1.0000   1.0000   1.0000
     1.0000   1.0000   1.0000   1.0000   1.0000   1.0000   1.0000   1.0000
     1.0000   1.0000   1.0000   1.0000   1.0000   1.0000   1.0000   1.0000
     1.0000   1.0000   1.0000   1.0000   1.0000   1.0000   1.0000   1.0000
     1.0000   1.0000   1.0000   1.0000   1.0000   1.0000   1.0000   1.0000
     1.0000   1.0000   1.0000   1.0000   1.0000   1.0000   1.0000   1.0000
     1.0000   1.0000   1.0000   1.0000   1.0000   1.0000   1.0000   1.0000
     1.0000   1.0000   1.0000   1.0000   1.0000   1.0000   1.0000   1.0000
     1.0000   0.9937   0.9936   0.0022   0.0022   0.0000   0.0000   0.0000
     0.0000   0.0000   0.0000   0.0000   0.0000   0.0000   0.0000   0.0000
     0.0000   0.0000   0.0000   0.0000   0.0000   0.0000   0.0000   0.0000
     0.0000   0.0000   0.0000   0.0000   0.0000   0.0000   0.0000   0.0000
     0.0000   0.0000   0.0000   0.0000   0.0000   0.0000   0.0000   0.0000
     0.0000   0.0000   0.0000   0.0000   0.0000   0.0000   0.0000   0.0000
     0.0000   0.0000   0.0000   0.0000   0.0000   0.0000   0.0000   0.0000

[...]

 ------ SPIN DOWN ----------

[...]

          k = 0.3333 0.5774-0.2004 (  5322 PWs)   bands (ev):

   -79.6220 -79.4517 -79.3132 -74.6655 -74.6483 -74.5171 -45.4616 -45.4131
   -45.4129 -45.2639 -45.2636 -45.2570 -45.1990 -45.0931 -45.0929 -40.6626
   -40.6411 -40.6109 -40.6097 -40.5915 -40.5910 -40.5149 -40.4694 -40.4692
   -11.2441 -11.2408 -11.2363 -11.2336 -11.2261 -11.2143 -11.1785 -11.1715
   -11.1689 -11.1649 -11.1630 -11.1495 -11.1421 -11.1348 -11.1265 -11.1247
   -11.1152 -11.1137 -11.1062 -11.1027 -11.1020 -11.0958 -11.0928 -11.0928
   -11.0870 -11.0766 -11.0735 -11.0706 -11.0600 -11.0570  -7.1795  -7.1609
    -7.1108  -7.0334  -6.8745  -6.8395  -6.4247  -6.4065  -6.3879  -6.3179
    -6.2546  -6.1896  -6.0383  -6.0010  -5.9908  -5.7962  -5.7641  -5.7154
     1.2890   1.3216   1.3496   1.3848   1.4044   1.4631   5.2302   5.2441
     5.3661   5.5128   5.6972   5.7143   5.8476   5.9405   5.9409   6.1124
     6.1150   6.2883   6.3000   6.3908   6.4073   6.5944   6.7508   6.7581
     6.8450   6.8593   6.8686   7.0971   7.1116   7.1237   7.3793   7.5140
     7.5756   7.6290   7.6323   7.6718   7.7310   7.8177   7.8599   7.9893
     8.0827   8.0885   8.1913   8.2358   8.2384   8.4232   8.4334   8.4970
     8.5899   8.6689   8.7235   8.8235   8.9413   8.9465   9.0800   9.1294
     9.1760   9.2985   9.3489   9.3987   9.5063   9.5396   9.5582  10.0277
    10.0324  10.2691  10.3530  10.3628  10.3710  10.6087  10.8224  10.8505
    10.9917  11.2565  11.2623  12.1083  12.1512  12.1710  12.3070  12.3779
    12.4848  12.5875  12.6301  12.6388  13.2645  13.3463  13.5235  13.9233
    13.9806  13.9994  14.8413  14.8443  14.8618  14.9711  14.9800  15.0198
    16.1933  16.1986  16.2018  16.2069  16.2631  16.3042  16.8310  16.8748
    16.8808  16.9705  17.0021  17.0693  20.3710  20.4502  20.6048  21.3264
    21.3709  21.3794  21.9579  21.9637  21.9815  22.1132  22.1293  22.1792
    22.6798  22.7310  22.7779  22.8575  22.8803  22.9332  23.5369  23.5490

     occupation numbers
     1.0000   1.0000   1.0000   1.0000   1.0000   1.0000   1.0000   1.0000
     1.0000   1.0000   1.0000   1.0000   1.0000   1.0000   1.0000   1.0000
     1.0000   1.0000   1.0000   1.0000   1.0000   1.0000   1.0000   1.0000
     1.0000   1.0000   1.0000   1.0000   1.0000   1.0000   1.0000   1.0000
     1.0000   1.0000   1.0000   1.0000   1.0000   1.0000   1.0000   1.0000
     1.0000   1.0000   1.0000   1.0000   1.0000   1.0000   1.0000   1.0000
     1.0000   1.0000   1.0000   1.0000   1.0000   1.0000   1.0000   1.0000
     1.0000   1.0000   1.0000   1.0000   1.0000   1.0000   1.0000   1.0000
     1.0000   1.0000   1.0000   1.0000   1.0000   1.0000   1.0000   1.0000
     1.0000   1.0000   1.0000   1.0000   1.0000   1.0000   1.0000   1.0000
     1.0000   1.0000   1.0000   1.0000   1.0000   1.0000   1.0000   1.0000
     1.0000   1.0000   1.0000   1.0000   1.0000   1.0000   1.0000   1.0000
     1.0000   1.0000   1.0000   1.0000   1.0000   1.0000   1.0000   1.0000
     1.0000   1.0000   1.0000   1.0000   1.0000   1.0000   1.0000   1.0000
     1.0000   1.0000   1.0000   1.0000   1.0000   1.0000   1.0000   1.0000
     1.0000   1.0000   1.0000   1.0000   1.0000   1.0000   1.0000   1.0000
     1.0000   1.0000   1.0000   1.0000   1.0000   1.0000   1.0000   1.0000
     1.0000   1.0000   1.0000   1.0000   1.0000   1.0000   1.0000   1.0000
     1.0000   1.0000   1.0000   0.0003   0.0001   0.0000   0.0000   0.0000
     0.0000   0.0000   0.0000   0.0000   0.0000   0.0000   0.0000   0.0000
     0.0000   0.0000   0.0000   0.0000   0.0000   0.0000   0.0000   0.0000
     0.0000   0.0000   0.0000   0.0000   0.0000   0.0000   0.0000   0.0000
     0.0000   0.0000   0.0000   0.0000   0.0000   0.0000   0.0000   0.0000
     0.0000   0.0000   0.0000   0.0000   0.0000   0.0000   0.0000   0.0000
     0.0000   0.0000   0.0000   0.0000   0.0000   0.0000   0.0000   0.0000

     the Fermi energy is    11.7804 ev

!    total energy              =   -3193.12561587 Ry
     estimated scf accuracy    <       0.00051619 Ry
     smearing contrib. (-TS)   =      -0.00023725 Ry
     internal energy E=F+TS    =   -3193.12537863 Ry

     The total energy is F=E-TS. E is the sum of the following terms:
     one-electron contribution =   -1311.09073094 Ry
     hartree contribution      =     840.20844289 Ry
     xc contribution           =    -694.59395662 Ry
     ewald contribution        =   -2027.64913396 Ry

     total magnetization       =     0.00 Bohr mag/cell
     absolute magnetization    =    27.62 Bohr mag/cell

     convergence has been achieved in  15 iterations

     Writing output data file /home/aldair1809/Documentos/QE/4BFO/UHUBBARD/temp/kpoints_ecutwfc_3.in/bifeo3-scf.save/

     General routines

     Parallel routines

   This run was terminated on:  21:37:52  29Sep2024

   JOB DONE.