     Program PWSCF v.6.7MaX starts on 30Sep2024 at  8:18:48

     R & G space division:  proc/nbgrp/npool/nimage =       4
     Waiting for input...
     Reading input from standard input

     Current dimensions of program PWSCF are:
     Max number of different atomic species (ntypx) = 10
     Max number of k-points (npk) =  40000
     Max angular momentum in pseudopotentials (lmaxx) =  3
     Message from routine input:
     WARNING: "startingwfc" set to atomic+random may spoil restart
     Message from routine input:
     WARNING: "startingpot" set to random may spoil restart

     Message from routine setup:
     using ibrav=0 with symmetry is DISCOURAGED, use correct ibrav instead

     bravais-lattice index     =            0
     lattice parameter (alat)  =      10.5468  a.u.
     unit-cell volume          =    2535.5110 (a.u.)^3
     number of atoms/cell      =           30
     number of atomic types    =            4
     number of electrons       =       294.00
     number of Kohn-Sham states=          200
     kinetic-energy cutoff     =      25.0000  Ry
     charge density cutoff     =     100.0000  Ry
     scf convergence threshold =      1.0E-03
     mixing beta               =       0.2000
     number of iterations used =            8  plain     mixing
     Exchange-correlation=  SLA  PW   PBX  PBC
                           (   1   4   3   4   0   0   0)

     celldm(1)=  10.546849  celldm(2)=   0.000000  celldm(3)=   0.000000
     celldm(4)=   0.000000  celldm(5)=   0.000000  celldm(6)=   0.000000

     crystal axes: (cart. coord. in units of alat)
               a(1) = (   1.000000  -0.000000  -0.000000 )
               a(2) = (  -0.500000   0.866025  -0.000000 )
               a(3) = (   0.000000  -0.000000   2.495552 )

     reciprocal axes: (cart. coord. in units 2 pi/alat)
               b(1) = (  1.000000  0.577350  0.000000 )
               b(2) = (  0.000000  1.154701  0.000000 )
               b(3) = (  0.000000  0.000000  0.400713 )

     PseudoPot. # 1 for O  read from file:
     /home/aldair1809/Programas/QE/q-e-qe-7.3/pseudo/o_pbe_v1.2.uspp.F.UPF
     MD5 check sum: 734c27235a0248c51dbae37a1fbe46ec
     Pseudo is Ultrasoft + core correction, Zval =  6.0
     Generated by new atomic code, or converted to UPF format
     Using radial grid of  737 points,  5 beta functions with:
                l(1) =   0
                l(2) =   0
                l(3) =   1
                l(4) =   1
                l(5) =   2
     Q(r) pseudized with  8 coefficients,  rinner =    0.900   0.900   0.900
                                                       0.900   0.900

     PseudoPot. # 2 for Bi read from file:
     /home/aldair1809/Programas/QE/q-e-qe-7.3/pseudo/bi_pbe_v1.uspp.F.UPF
     MD5 check sum: cceb9f28ec65b6d7ff33140f5b0b1758
     Pseudo is Ultrasoft + core correction, Zval = 15.0
     Generated by new atomic code, or converted to UPF format
     Using radial grid of  899 points,  6 beta functions with:
                l(1) =   0
                l(2) =   0
                l(3) =   1
                l(4) =   1
                l(5) =   2
                l(6) =   2
     Q(r) pseudized with  6 coefficients,  rinner =    1.000   1.000   1.000
                                                       1.000   1.000

     PseudoPot. # 3 for Fe read from file:
     /home/aldair1809/Programas/QE/q-e-qe-7.3/pseudo/fe_pbe_v1.5.uspp.F.UPF
     MD5 check sum: a130daea23fe5165f5d574ae7f82ed95
     Pseudo is Ultrasoft + core correction, Zval = 16.0
     Generated by new atomic code, or converted to UPF format
     Using radial grid of  861 points,  6 beta functions with:
                l(1) =   0
                l(2) =   0
                l(3) =   1
                l(4) =   1
                l(5) =   2
                l(6) =   2
     Q(r) pseudized with  8 coefficients,  rinner =    1.000   1.000   1.000
                                                       1.000   1.000

     PseudoPot. # 4 for Fe read from file:
     /home/aldair1809/Programas/QE/q-e-qe-7.3/pseudo/fe_pbe_v1.5.uspp.F.UPF
     MD5 check sum: a130daea23fe5165f5d574ae7f82ed95
     Pseudo is Ultrasoft + core correction, Zval = 16.0
     Generated by new atomic code, or converted to UPF format
     Using radial grid of  861 points,  6 beta functions with:
                l(1) =   0
                l(2) =   0
                l(3) =   1
                l(4) =   1
                l(5) =   2
                l(6) =   2
     Q(r) pseudized with  8 coefficients,  rinner =    1.000   1.000   1.000
                                                       1.000   1.000

     atomic species   valence    mass     pseudopotential
        O              6.00    15.99940     O ( 1.00)
        Bi            15.00   208.98040     Bi( 1.00)
        Fe1           16.00    55.84500     Fe( 1.00)
        Fe2           16.00    55.84500     Fe( 1.00)

     Starting magnetic structure
     atomic species   magnetization
        O            0.000
        Bi           0.000
        Fe1         -0.800
        Fe2          0.800

      3 Sym. Ops. (no inversion) found

                                    s                        frac. trans.

      isym =  1     identity

 cryst.   s( 1) = (     1          0          0      )
                  (     0          1          0      )
                  (     0          0          1      )

 cart.    s( 1) = (  1.0000000 -0.0000000  0.0000000 )
                  (  0.0000000  1.0000000  0.0000000 )
                  (  0.0000000  0.0000000  1.0000000 )

      isym =  2     120 deg rotation - cryst. axis [0,0,1]

[...]

      isym =  3     120 deg rotation - cryst. axis [0,0,-1]

 cryst.   s( 3) = (    -1         -1          0      )
                  (     1          0          0      )
                  (     0          0          1      )

 cart.    s( 3) = ( -0.5000000  0.8660254  0.0000000 )
                  ( -0.8660254 -0.5000000  0.0000000 )
                  (  0.0000000  0.0000000  1.0000000 )

   Cartesian axes

     site n.     atom                  positions (alat units)
         1           Fe1 tau(   1) = (   0.0000000   0.0000000   1.9384582  )
         2           Fe1 tau(   2) = (  -0.0000005   0.5773506   2.3615556  )
         3           Fe1 tau(   3) = (   0.5000005   0.2886748   1.5200787  )
         4           Fe2 tau(   4) = (   0.5000005   0.2886748   0.2722626  )
         5           Fe2 tau(   5) = (   0.0000000   0.0000000   0.6907071  )
         6           Fe2 tau(   6) = (  -0.0000005   0.5773506   1.1137452  )
         7           Bi  tau(   7) = (   0.5000005   0.2886748   2.0843143  )
         8           Bi  tau(   8) = (  -0.0000005   0.5773506   1.6713980  )
         9           Bi  tau(   9) = (  -0.0000005   0.5773506   0.4235448  )
        10           Bi  tau(  10) = (   0.0000000   0.0000000   0.0002821  )
        11           Bi  tau(  11) = (   0.0000000   0.0000000   1.2481025  )
        12           Bi  tau(  12) = (   0.5000005   0.2886748   0.8364865  )
        13           O   tau(  13) = (  -0.3105904   0.6551932   2.2011299  )
        14           O   tau(  14) = (   0.0878817   0.2694488   2.2011299  )
        15           O   tau(  15) = (   0.2227102   0.8074080   2.2011299  )
        16           O   tau(  16) = (   0.4087504   0.5589755   1.7846473  )
        17           O   tau(  17) = (   0.3115373   0.0745013   1.7846473  )
        18           O   tau(  18) = (   0.7797108   0.2325494   1.7846473  )
        19           O   tau(  19) = (   0.6884743   0.0745026   0.5368244  )
        20           O   tau(  20) = (   0.5912412   0.5589858   0.5368244  )
        21           O   tau(  21) = (   0.2202830   0.2325379   0.5368244  )
        22           O   tau(  22) = (  -0.0823010   0.8482993   0.1166193  )
        23           O   tau(  23) = (  -0.1934983   0.3706010   0.1166193  )
        24           O   tau(  24) = (   0.2757993   0.5131505   0.1166193  )
        25           O   tau(  25) = (   0.1934855   0.3705936   1.3644430  )
        26           O   tau(  26) = (   0.0823138   0.8482919   1.3644430  )
        27           O   tau(  27) = (  -0.2757993   0.5131653   1.3644430  )
        28           O   tau(  28) = (  -0.0878870   0.2694458   0.9533686  )
        29           O   tau(  29) = (   0.3105971   0.6551893   0.9533686  )
        30           O   tau(  30) = (  -0.2227086   0.8074149   0.9533686  )

   Crystallographic axes

     site n.     atom                  positions (cryst. coord.)
         1           Fe1 tau(   1) = (  0.0000000  0.0000000  0.7767652  )
         2           Fe1 tau(   2) = (  0.3333330  0.6666670  0.9463058  )
         3           Fe1 tau(   3) = (  0.6666670  0.3333330  0.6091152  )
         4           Fe2 tau(   4) = (  0.6666670  0.3333330  0.1090991  )
         5           Fe2 tau(   5) = (  0.0000000  0.0000000  0.2767753  )
         6           Fe2 tau(   6) = (  0.3333330  0.6666670  0.4462921  )
         7           Bi  tau(   7) = (  0.6666670  0.3333330  0.8352117  )
         8           Bi  tau(   8) = (  0.3333330  0.6666670  0.6697508  )
         9           Bi  tau(   9) = (  0.3333330  0.6666670  0.1697199  )
        10           Bi  tau(  10) = (  0.0000000  0.0000000  0.0001130  )
        11           Bi  tau(  11) = (  0.0000000  0.0000000  0.5001308  )
        12           Bi  tau(  12) = (  0.6666670  0.3333330  0.3351910  )
        13           O   tau(  13) = (  0.0676856  0.7565520  0.8820212  )
        14           O   tau(  14) = (  0.2434480  0.3111326  0.8820212  )
        15           O   tau(  15) = (  0.6888674  0.9323144  0.8820212  )
        16           O   tau(  16) = (  0.7314750  0.6454493  0.7151312  )
        17           O   tau(  17) = (  0.3545507  0.0860267  0.7151312  )
        18           O   tau(  18) = (  0.9139733  0.2685250  0.7151312  )
        19           O   tau(  19) = (  0.7314884  0.0860282  0.2151125  )
        20           O   tau(  20) = (  0.9139718  0.6454612  0.2151125  )
        21           O   tau(  21) = (  0.3545388  0.2685116  0.2151125  )
        22           O   tau(  22) = (  0.4074649  0.9795317  0.0467309  )
        23           O   tau(  23) = (  0.0204683  0.4279331  0.0467309  )
        24           O   tau(  24) = (  0.5720669  0.5925351  0.0467309  )
        25           O   tau(  25) = (  0.4074478  0.4279246  0.5467499  )
        26           O   tau(  26) = (  0.5720754  0.9795232  0.5467499  )
        27           O   tau(  27) = (  0.0204768  0.5925522  0.5467499  )
        28           O   tau(  28) = (  0.0676775  0.3111292  0.3820271  )
        29           O   tau(  29) = (  0.6888708  0.7565474  0.3820271  )
        30           O   tau(  30) = (  0.2434526  0.9323225  0.3820271  )

     number of k points=    36  Gaussian smearing, width (Ry)=  0.0100
                       cart. coord. in units 2pi/alat
        k(    1) = (   0.0000000   0.0000000   0.0000000), wk =   0.0055556
        k(    2) = (   0.0000000   0.0000000   0.0801426), wk =   0.0111111
        k(    3) = (   0.0000000   0.0000000   0.1602852), wk =   0.0111111
        k(    4) = (   0.0000000   0.1924501   0.0000000), wk =   0.0333333
[...]
        k(   28) = (   0.1666667  -0.5000000   0.0000000), wk =   0.0333333
        k(   29) = (   0.1666667  -0.5000000  -0.2000000), wk =   0.0333333
        k(   30) = (  -0.3333333   0.5000000   0.2000000), wk =   0.0333333
        k(   31) = (  -0.1666667   0.5000000  -0.2000000), wk =   0.0333333
        k(   32) = (   0.1666667  -0.5000000  -0.4000000), wk =   0.0333333
        k(   33) = (  -0.3333333   0.5000000   0.4000000), wk =   0.0333333
        k(   34) = (  -0.1666667   0.5000000  -0.4000000), wk =   0.0333333
        k(   35) = (   0.3333333  -0.6666667  -0.2000000), wk =   0.0111111
        k(   36) = (   0.3333333  -0.6666667  -0.4000000), wk =   0.0111111

     Atomic positions and unit cell read from directory:
     /home/aldair1809/Documentos/QE/4BFO/UHUBBARD/temp/kpoints_ecutwfc_6.in/bifeo3-scf.save/

     Check: negative core charge=   -0.000640
     Generating pointlists ...
     new r_m :   0.1458 (alat units)  1.5374 (a.u.) for type    1
     new r_m :   0.1687 (alat units)  1.7788 (a.u.) for type    2
     new r_m :   0.1458 (alat units)  1.5374 (a.u.) for type    3
     new r_m :   0.1458 (alat units)  1.5374 (a.u.) for type    4

     The initial density is read from file :
     /home/aldair1809/Documentos/QE/4BFO/UHUBBARD/temp/kpoints_ecutwfc_6.in/bifeo3-scf.save/charge-density

     negative rho (up, down):  1.113E-01 1.113E-01
     Starting wfcs are  204 randomized atomic wfcs
     Calculation restarted from scf iteration #    12

     Self-consistent Calculation

     iteration # 12     ecut=    25.00 Ry     beta= 0.20
     Calculation restarted from kpoint #     4
     CG style diagonalization
     c_bands:  5 eigenvalues not converged
     c_bands:  3 eigenvalues not converged
     c_bands:  4 eigenvalues not converged
     c_bands:  4 eigenvalues not converged
     c_bands:  3 eigenvalues not converged
     c_bands:  2 eigenvalues not converged
     c_bands:  1 eigenvalues not converged
     c_bands:  3 eigenvalues not converged
     c_bands:  1 eigenvalues not converged
     c_bands:  4 eigenvalues not converged
     c_bands:  3 eigenvalues not converged
     c_bands:  2 eigenvalues not converged
     c_bands:  3 eigenvalues not converged
     c_bands:  2 eigenvalues not converged
     c_bands:  3 eigenvalues not converged
     c_bands:  1 eigenvalues not converged
     c_bands:  4 eigenvalues not converged
     c_bands:  1 eigenvalues not converged
     c_bands:  3 eigenvalues not converged
     c_bands:  2 eigenvalues not converged
     c_bands:  3 eigenvalues not converged
     c_bands:  2 eigenvalues not converged
     c_bands:  3 eigenvalues not converged
     c_bands:  2 eigenvalues not converged
     c_bands:  2 eigenvalues not converged
     c_bands:  3 eigenvalues not converged
     c_bands:  1 eigenvalues not converged
     c_bands:  2 eigenvalues not converged
     c_bands:  2 eigenvalues not converged
     c_bands:  3 eigenvalues not converged
     c_bands:  1 eigenvalues not converged
     c_bands:  3 eigenvalues not converged
     c_bands:  4 eigenvalues not converged
     c_bands:  3 eigenvalues not converged
     c_bands:  1 eigenvalues not converged
     c_bands:  5 eigenvalues not converged
     c_bands:  2 eigenvalues not converged
     c_bands:  1 eigenvalues not converged
     c_bands:  1 eigenvalues not converged
     c_bands:  1 eigenvalues not converged
     c_bands:  2 eigenvalues not converged
     c_bands:  3 eigenvalues not converged
     c_bands:  1 eigenvalues not converged
     c_bands:  3 eigenvalues not converged
     c_bands:  3 eigenvalues not converged
     c_bands:  2 eigenvalues not converged
     c_bands:  2 eigenvalues not converged
     c_bands:  3 eigenvalues not converged
     c_bands:  2 eigenvalues not converged
     c_bands:  4 eigenvalues not converged
     c_bands:  2 eigenvalues not converged
     c_bands:  2 eigenvalues not converged
     c_bands:  2 eigenvalues not converged
     c_bands:  3 eigenvalues not converged
     c_bands:  2 eigenvalues not converged
     c_bands:  2 eigenvalues not converged
     c_bands:  2 eigenvalues not converged
     c_bands:  2 eigenvalues not converged
     c_bands:  2 eigenvalues not converged
     c_bands:  2 eigenvalues not converged
     c_bands:  3 eigenvalues not converged
     c_bands:  2 eigenvalues not converged
     c_bands:  1 eigenvalues not converged
     ethr =  7.53E-06,  avg # of iterations = 15.7

     negative rho (up, down):  1.115E-01 1.115E-01

     total energy              =   -3193.11538103 Ry
     estimated scf accuracy    <       0.00671628 Ry

     total magnetization       =    -0.00 Bohr mag/cell
     absolute magnetization    =    27.56 Bohr mag/cell

     iteration # 13     ecut=    25.00 Ry     beta= 0.20
     CG style diagonalization
     c_bands:  3 eigenvalues not converged
     c_bands:  1 eigenvalues not converged
     c_bands:  1 eigenvalues not converged
     c_bands:  1 eigenvalues not converged
     c_bands:  2 eigenvalues not converged
     c_bands:  1 eigenvalues not converged
     c_bands:  1 eigenvalues not converged
     c_bands:  2 eigenvalues not converged
     ethr =  2.28E-06,  avg # of iterations =  3.6

[...]

     total energy              =   -3193.11490053 Ry
     estimated scf accuracy    <       0.00413913 Ry

[...]

     iteration # 14     ecut=    25.00 Ry     beta= 0.20
     CG style diagonalization
     c_bands:  2 eigenvalues not converged
     ethr =  1.41E-06,  avg # of iterations =  3.0

     negative rho (up, down):  1.117E-01 1.117E-01

     Magnetic moment per site:
     atom:    1    charge:   13.0421    magn:   -3.7183    constr:    0.0000
     atom:    2    charge:   13.0487    magn:   -3.6036    constr:    0.0000
     atom:    3    charge:   13.0651    magn:   -3.5937    constr:    0.0000
     atom:    4    charge:   13.0654    magn:    3.5936    constr:    0.0000
     atom:    5    charge:   13.0446    magn:    3.7167    constr:    0.0000
     atom:    6    charge:   13.0487    magn:    3.6038    constr:    0.0000
     atom:    7    charge:   10.4865    magn:   -0.0163    constr:    0.0000
     atom:    8    charge:   10.4858    magn:   -0.0128    constr:    0.0000
     atom:    9    charge:   10.4858    magn:    0.0127    constr:    0.0000
     atom:   10    charge:   10.4888    magn:   -0.0040    constr:    0.0000
     atom:   11    charge:   10.4887    magn:    0.0039    constr:    0.0000
     atom:   12    charge:   10.4865    magn:    0.0162    constr:    0.0000
     atom:   13    charge:    5.3987    magn:   -0.2157    constr:    0.0000
     atom:   14    charge:    5.3987    magn:   -0.2157    constr:    0.0000
     atom:   15    charge:    5.3987    magn:   -0.2157    constr:    0.0000
     atom:   16    charge:    5.3964    magn:   -0.2286    constr:    0.0000
     atom:   17    charge:    5.3964    magn:   -0.2286    constr:    0.0000
     atom:   18    charge:    5.3964    magn:   -0.2286    constr:    0.0000
     atom:   19    charge:    5.3964    magn:    0.2291    constr:    0.0000
     atom:   20    charge:    5.3964    magn:    0.2291    constr:    0.0000
     atom:   21    charge:    5.3964    magn:    0.2291    constr:    0.0000
     atom:   22    charge:    5.3892    magn:    0.0714    constr:    0.0000
     atom:   23    charge:    5.3892    magn:    0.0714    constr:    0.0000
     atom:   24    charge:    5.3892    magn:    0.0714    constr:    0.0000
     atom:   25    charge:    5.3891    magn:   -0.0708    constr:    0.0000
     atom:   26    charge:    5.3891    magn:   -0.0708    constr:    0.0000
     atom:   27    charge:    5.3891    magn:   -0.0708    constr:    0.0000
     atom:   28    charge:    5.3990    magn:    0.2162    constr:    0.0000
     atom:   29    charge:    5.3990    magn:    0.2162    constr:    0.0000
     atom:   30    charge:    5.3990    magn:    0.2162    constr:    0.0000

     End of self-consistent calculation

 ------ SPIN UP ------------

          k = 0.0000 0.0000 0.0000 (  5411 PWs)   bands (ev):

   -79.6551 -79.4863 -79.3541 -74.6631 -74.6515 -74.5266 -45.5025 -45.4564
   -45.4564 -45.3083 -45.3083 -45.2994 -45.2477 -45.1439 -45.1439 -40.6730
   -40.6537 -40.6225 -40.6225 -40.6064 -40.6064 -40.5353 -40.4913 -40.4912
   -11.2592 -11.2592 -11.2210 -11.2210 -11.2017 -11.2017 -11.1722 -11.1550
   -11.1462 -11.1462 -11.1429 -11.1429 -11.1309 -11.1309 -11.1120 -11.0948
   -11.0870 -11.0870 -11.0807 -11.0807 -11.0749 -11.0749 -11.0707 -11.0641
   -11.0641 -11.0550 -11.0424 -11.0424 -11.0264 -11.0264  -7.9875  -7.6096
    -7.5118  -6.7571  -6.7065  -6.3119  -6.3118  -6.1871  -6.1871  -6.1843
    -6.0840  -6.0839  -5.9892  -5.9891  -5.8299  -5.8299  -5.6611  -5.6610
     0.8174   1.0558   1.1332   1.9047   2.0380   2.7889   4.9453   4.9453
     5.0629   5.4413   5.4413   5.5447   5.5447   5.5448   5.7309   5.7397
     5.7398   5.9510   6.0145   6.0145   6.2059   6.2060   6.2692   6.4276
     6.4276   6.4301   6.5244   6.7387   6.7387   7.0264   7.0264   7.1762
     7.3364   7.6173   7.6173   7.7297   7.8534   7.8534   7.9674   7.9674
     8.1619   8.2983   8.3434   8.3434   8.5135   8.5135   8.5234   8.6431
     8.6645   8.6645   8.8240   8.8241   8.9763   8.9763   9.3167   9.3168
     9.3666   9.3666   9.3674   9.4244   9.4245   9.7697   9.7698  10.0924
    10.1912  10.1912  10.2565  10.4308  10.5252  10.6597  10.7333  10.8878
    10.8879  11.5282  11.5283  12.0629  12.0629  12.2851  12.2895  12.2895
    12.3501  12.3728  12.4495  12.4495  13.2181  13.2181  13.8430  13.8431
    14.3932  14.3933  15.0631  15.1785  15.2841  15.3305  16.3757  16.3757
    16.5128  16.5128  16.5561  16.5561  16.8499  16.9103  17.1035  17.1035
    17.1793  17.1794  17.5919  17.5919  18.2996  19.6022  19.8243  19.9938
    20.6965  20.6965  20.9819  21.0600  21.6998  21.6999  21.8073  21.8074
    22.1317  22.1318  22.8653  23.0361  23.0551  23.0552  23.2101  23.2807

     occupation numbers
     1.0000   1.0000   1.0000   1.0000   1.0000   1.0000   1.0000   1.0000
     1.0000   1.0000   1.0000   1.0000   1.0000   1.0000   1.0000   1.0000
     1.0000   1.0000   1.0000   1.0000   1.0000   1.0000   1.0000   1.0000
     1.0000   1.0000   1.0000   1.0000   1.0000   1.0000   1.0000   1.0000
     1.0000   1.0000   1.0000   1.0000   1.0000   1.0000   1.0000   1.0000
     1.0000   1.0000   1.0000   1.0000   1.0000   1.0000   1.0000   1.0000
     1.0000   1.0000   1.0000   1.0000   1.0000   1.0000   1.0000   1.0000
     1.0000   1.0000   1.0000   1.0000   1.0000   1.0000   1.0000   1.0000
     1.0000   1.0000   1.0000   1.0000   1.0000   1.0000   1.0000   1.0000
     1.0000   1.0000   1.0000   1.0000   1.0000   1.0000   1.0000   1.0000
     1.0000   1.0000   1.0000   1.0000   1.0000   1.0000   1.0000   1.0000
     1.0000   1.0000   1.0000   1.0000   1.0000   1.0000   1.0000   1.0000
     1.0000   1.0000   1.0000   1.0000   1.0000   1.0000   1.0000   1.0000
     1.0000   1.0000   1.0000   1.0000   1.0000   1.0000   1.0000   1.0000
     1.0000   1.0000   1.0000   1.0000   1.0000   1.0000   1.0000   1.0000
     1.0000   1.0000   1.0000   1.0000   1.0000   1.0000   1.0000   1.0000
     1.0000   1.0000   1.0000   1.0000   1.0000   1.0000   1.0000   1.0000
     1.0000   1.0000   1.0000   1.0000   1.0000   1.0000   1.0000   1.0000
     1.0000   0.9938   0.9938   0.0011   0.0011   0.0000   0.0000   0.0000
     0.0000   0.0000   0.0000   0.0000   0.0000   0.0000   0.0000   0.0000
     0.0000   0.0000   0.0000   0.0000   0.0000   0.0000   0.0000   0.0000
     0.0000   0.0000   0.0000   0.0000   0.0000   0.0000   0.0000   0.0000
     0.0000   0.0000   0.0000   0.0000   0.0000   0.0000   0.0000   0.0000
     0.0000   0.0000   0.0000   0.0000   0.0000   0.0000   0.0000   0.0000
     0.0000   0.0000   0.0000   0.0000   0.0000   0.0000   0.0000   0.0000

[...]

          k =-0.1667 0.0962 0.0801 (  5376 PWs)   bands (ev):

[...]

 ------ SPIN DOWN ----------

[...]

          k =-0.1667 0.4811-0.1603 (  5346 PWs)   bands (ev):

[...]

          k = 0.3333-0.5774-0.1603 (  5349 PWs)   bands (ev):

   -79.6428 -79.4837 -79.3516 -74.6700 -74.6490 -74.5244 -45.4864 -45.4348
   -45.4347 -45.2963 -45.2960 -45.2933 -45.2404 -45.1321 -45.1318 -40.6745
   -40.6496 -40.6196 -40.6183 -40.5959 -40.5957 -40.5291 -40.4802 -40.4800
   -11.2226 -11.2215 -11.2158 -11.2110 -11.2082 -11.1978 -11.1589 -11.1515
   -11.1482 -11.1461 -11.1408 -11.1314 -11.1209 -11.1151 -11.1040 -11.1026
   -11.0973 -11.0956 -11.0835 -11.0801 -11.0793 -11.0772 -11.0765 -11.0764
   -11.0645 -11.0552 -11.0520 -11.0487 -11.0443 -11.0414  -7.1690  -7.1549
    -7.1130  -7.0256  -6.8778  -6.8391  -6.4209  -6.4077  -6.3934  -6.3044
    -6.2434  -6.1781  -6.0387  -5.9955  -5.9921  -5.7961  -5.7675  -5.7177
     1.2958   1.3324   1.3599   1.3925   1.4081   1.4665   5.2254   5.2394
     5.3511   5.5096   5.6882   5.7133   5.8434   5.9091   5.9200   6.1113
     6.1579   6.2686   6.3005   6.3789   6.3981   6.5621   6.7655   6.7752
     6.8239   6.8281   6.8409   7.0606   7.1250   7.1288   7.4165   7.5197
     7.5514   7.5741   7.6108   7.6509   7.7438   7.7873   7.8914   7.9687
     8.0508   8.0922   8.1765   8.2550   8.2586   8.3946   8.4101   8.5087
     8.5902   8.6603   8.6937   8.8231   8.9207   8.9652   9.0865   9.1407
     9.1775   9.2916   9.3298   9.3786   9.4897   9.5421   9.5498  10.0053
    10.0277  10.2658  10.3446  10.3596  10.3828  10.6108  10.8215  10.8535
    10.9732  11.2428  11.2522  12.0928  12.1287  12.1573  12.2944  12.3590
    12.4722  12.5713  12.6153  12.6306  13.2564  13.3363  13.5092  13.9174
    13.9676  13.9871  14.8342  14.8477  14.8516  14.9915  15.0035  15.0231
    16.1478  16.1596  16.1954  16.2336  16.3009  16.3047  16.8352  16.8664
    16.8905  16.9870  17.0308  17.0734  20.3660  20.4455  20.6084  21.3190
    21.3615  21.3735  21.9234  21.9359  21.9403  22.1537  22.1758  22.1913
    22.6714  22.6816  22.7502  22.8705  22.9428  22.9676  23.4294  23.4594

     occupation numbers
     1.0000   1.0000   1.0000   1.0000   1.0000   1.0000   1.0000   1.0000
     1.0000   1.0000   1.0000   1.0000   1.0000   1.0000   1.0000   1.0000
     1.0000   1.0000   1.0000   1.0000   1.0000   1.0000   1.0000   1.0000
     1.0000   1.0000   1.0000   1.0000   1.0000   1.0000   1.0000   1.0000
     1.0000   1.0000   1.0000   1.0000   1.0000   1.0000   1.0000   1.0000
     1.0000   1.0000   1.0000   1.0000   1.0000   1.0000   1.0000   1.0000
     1.0000   1.0000   1.0000   1.0000   1.0000   1.0000   1.0000   1.0000
     1.0000   1.0000   1.0000   1.0000   1.0000   1.0000   1.0000   1.0000
     1.0000   1.0000   1.0000   1.0000   1.0000   1.0000   1.0000   1.0000
     1.0000   1.0000   1.0000   1.0000   1.0000   1.0000   1.0000   1.0000
     1.0000   1.0000   1.0000   1.0000   1.0000   1.0000   1.0000   1.0000
     1.0000   1.0000   1.0000   1.0000   1.0000   1.0000   1.0000   1.0000
     1.0000   1.0000   1.0000   1.0000   1.0000   1.0000   1.0000   1.0000
     1.0000   1.0000   1.0000   1.0000   1.0000   1.0000   1.0000   1.0000
     1.0000   1.0000   1.0000   1.0000   1.0000   1.0000   1.0000   1.0000
     1.0000   1.0000   1.0000   1.0000   1.0000   1.0000   1.0000   1.0000
     1.0000   1.0000   1.0000   1.0000   1.0000   1.0000   1.0000   1.0000
     1.0000   1.0000   1.0000   1.0000   1.0000   1.0000   1.0000   1.0000
     1.0000   1.0000   1.0000   0.0004   0.0001   0.0000   0.0000   0.0000
     0.0000   0.0000   0.0000   0.0000   0.0000   0.0000   0.0000   0.0000
     0.0000   0.0000   0.0000   0.0000   0.0000   0.0000   0.0000   0.0000
     0.0000   0.0000   0.0000   0.0000   0.0000   0.0000   0.0000   0.0000
     0.0000   0.0000   0.0000   0.0000   0.0000   0.0000   0.0000   0.0000
     0.0000   0.0000   0.0000   0.0000   0.0000   0.0000   0.0000   0.0000
     0.0000   0.0000   0.0000   0.0000   0.0000   0.0000   0.0000   0.0000

     the Fermi energy is    11.7687 ev

!    total energy              =   -3193.11533165 Ry
     estimated scf accuracy    <       0.00022185 Ry
     smearing contrib. (-TS)   =      -0.00020554 Ry
     internal energy E=F+TS    =   -3193.11512611 Ry

     The total energy is F=E-TS. E is the sum of the following terms:
     one-electron contribution =   -1311.14666747 Ry
     hartree contribution      =     840.24633203 Ry
     xc contribution           =    -694.56565672 Ry
     ewald contribution        =   -2027.64913396 Ry

     total magnetization       =    -0.00 Bohr mag/cell
     absolute magnetization    =    27.61 Bohr mag/cell

     convergence has been achieved in  14 iterations

     Writing output data file /home/aldair1809/Documentos/QE/4BFO/UHUBBARD/temp/kpoints_ecutwfc_6.in/bifeo3-scf.save/

     General routines

     Parallel routines

   This run was terminated on:   9:35:14  30Sep2024

   JOB DONE.