     Program PWSCF v.6.7MaX starts on 30Sep2024 at 11:39:43

     R & G space division:  proc/nbgrp/npool/nimage =       4
     Waiting for input...
     Reading input from standard input

     Current dimensions of program PWSCF are:
     Max number of different atomic species (ntypx) = 10
     Max number of k-points (npk) =  40000
     Max angular momentum in pseudopotentials (lmaxx) =  3
     Message from routine input:
     WARNING: "startingwfc" set to atomic+random may spoil restart
     Message from routine input:
     WARNING: "startingpot" set to random may spoil restart
     Message from routine iosys:
     restart disabled: needed files not found

     Message from routine setup:
     using ibrav=0 with symmetry is DISCOURAGED, use correct ibrav instead

     bravais-lattice index     =            0
     lattice parameter (alat)  =      10.5468  a.u.
     unit-cell volume          =    2535.5110 (a.u.)^3
     number of atoms/cell      =           30
     number of atomic types    =            4
     number of electrons       =       294.00
     number of Kohn-Sham states=          200
     kinetic-energy cutoff     =      25.0000  Ry
     charge density cutoff     =     100.0000  Ry
     scf convergence threshold =      1.0E-03
     mixing beta               =       0.2000
     number of iterations used =            8  plain     mixing
     Exchange-correlation=  SLA  PW   PBX  PBC
                           (   1   4   3   4   0   0   0)

     celldm(1)=  10.546849  celldm(2)=   0.000000  celldm(3)=   0.000000
     celldm(4)=   0.000000  celldm(5)=   0.000000  celldm(6)=   0.000000

     crystal axes: (cart. coord. in units of alat)
               a(1) = (   1.000000  -0.000000  -0.000000 )
               a(2) = (  -0.500000   0.866025  -0.000000 )
               a(3) = (   0.000000  -0.000000   2.495552 )

     reciprocal axes: (cart. coord. in units 2 pi/alat)
               b(1) = (  1.000000  0.577350  0.000000 )
               b(2) = (  0.000000  1.154701  0.000000 )
               b(3) = (  0.000000  0.000000  0.400713 )

     PseudoPot. # 1 for O  read from file:
     /home/aldair1809/Programas/QE/q-e-qe-7.3/pseudo/o_pbe_v1.2.uspp.F.UPF
     MD5 check sum: 734c27235a0248c51dbae37a1fbe46ec
     Pseudo is Ultrasoft + core correction, Zval =  6.0
     Generated by new atomic code, or converted to UPF format
     Using radial grid of  737 points,  5 beta functions with:
                l(1) =   0
                l(2) =   0
                l(3) =   1
                l(4) =   1
                l(5) =   2
     Q(r) pseudized with  8 coefficients,  rinner =    0.900   0.900   0.900
                                                       0.900   0.900

     PseudoPot. # 2 for Bi read from file:
     /home/aldair1809/Programas/QE/q-e-qe-7.3/pseudo/bi_pbe_v1.uspp.F.UPF
     MD5 check sum: cceb9f28ec65b6d7ff33140f5b0b1758
     Pseudo is Ultrasoft + core correction, Zval = 15.0
     Generated by new atomic code, or converted to UPF format
     Using radial grid of  899 points,  6 beta functions with:
                l(1) =   0
                l(2) =   0
                l(3) =   1
                l(4) =   1
                l(5) =   2
                l(6) =   2
     Q(r) pseudized with  6 coefficients,  rinner =    1.000   1.000   1.000
                                                       1.000   1.000

     PseudoPot. # 3 for Fe read from file:
     /home/aldair1809/Programas/QE/q-e-qe-7.3/pseudo/fe_pbe_v1.5.uspp.F.UPF
     MD5 check sum: a130daea23fe5165f5d574ae7f82ed95
     Pseudo is Ultrasoft + core correction, Zval = 16.0
     Generated by new atomic code, or converted to UPF format
     Using radial grid of  861 points,  6 beta functions with:
                l(1) =   0
                l(2) =   0
                l(3) =   1
                l(4) =   1
                l(5) =   2
                l(6) =   2
     Q(r) pseudized with  8 coefficients,  rinner =    1.000   1.000   1.000
                                                       1.000   1.000

     PseudoPot. # 4 for Fe read from file:
     /home/aldair1809/Programas/QE/q-e-qe-7.3/pseudo/fe_pbe_v1.5.uspp.F.UPF
     MD5 check sum: a130daea23fe5165f5d574ae7f82ed95
     Pseudo is Ultrasoft + core correction, Zval = 16.0
     Generated by new atomic code, or converted to UPF format
     Using radial grid of  861 points,  6 beta functions with:
                l(1) =   0
                l(2) =   0
                l(3) =   1
                l(4) =   1
                l(5) =   2
                l(6) =   2
     Q(r) pseudized with  8 coefficients,  rinner =    1.000   1.000   1.000
                                                       1.000   1.000

     atomic species   valence    mass     pseudopotential
        O              6.00    15.99940     O ( 1.00)
        Bi            15.00   208.98040     Bi( 1.00)
        Fe1           16.00    55.84500     Fe( 1.00)
        Fe2           16.00    55.84500     Fe( 1.00)

     Starting magnetic structure
     atomic species   magnetization
        O            0.000
        Bi           0.000
        Fe1         -0.800
        Fe2          0.800

      3 Sym. Ops. (no inversion) found

                                    s                        frac. trans.

      isym =  1     identity

 cryst.   s( 1) = (     1          0          0      )
                  (     0          1          0      )
                  (     0          0          1      )

 cart.    s( 1) = (  1.0000000 -0.0000000  0.0000000 )
                  (  0.0000000  1.0000000  0.0000000 )
                  (  0.0000000  0.0000000  1.0000000 )

      isym =  2     120 deg rotation - cryst. axis [0,0,1]

[...]

      isym =  3     120 deg rotation - cryst. axis [0,0,-1]

 cryst.   s( 3) = (    -1         -1          0      )
                  (     1          0          0      )
                  (     0          0          1      )

 cart.    s( 3) = ( -0.5000000  0.8660254  0.0000000 )
                  ( -0.8660254 -0.5000000  0.0000000 )
                  (  0.0000000  0.0000000  1.0000000 )

   Cartesian axes

     site n.     atom                  positions (alat units)
         1           Fe1 tau(   1) = (   0.0000000   0.0000000   1.9384582  )
         2           Fe1 tau(   2) = (  -0.0000005   0.5773506   2.3615556  )
         3           Fe1 tau(   3) = (   0.5000005   0.2886748   1.5200787  )
         4           Fe2 tau(   4) = (   0.5000005   0.2886748   0.2722626  )
         5           Fe2 tau(   5) = (   0.0000000   0.0000000   0.6907071  )
         6           Fe2 tau(   6) = (  -0.0000005   0.5773506   1.1137452  )
         7           Bi  tau(   7) = (   0.5000005   0.2886748   2.0843143  )
         8           Bi  tau(   8) = (  -0.0000005   0.5773506   1.6713980  )
         9           Bi  tau(   9) = (  -0.0000005   0.5773506   0.4235448  )
        10           Bi  tau(  10) = (   0.0000000   0.0000000   0.0002821  )
        11           Bi  tau(  11) = (   0.0000000   0.0000000   1.2481025  )
        12           Bi  tau(  12) = (   0.5000005   0.2886748   0.8364865  )
        13           O   tau(  13) = (  -0.3105904   0.6551932   2.2011299  )
        14           O   tau(  14) = (   0.0878817   0.2694488   2.2011299  )
        15           O   tau(  15) = (   0.2227102   0.8074080   2.2011299  )
        16           O   tau(  16) = (   0.4087504   0.5589755   1.7846473  )
        17           O   tau(  17) = (   0.3115373   0.0745013   1.7846473  )
        18           O   tau(  18) = (   0.7797108   0.2325494   1.7846473  )
        19           O   tau(  19) = (   0.6884743   0.0745026   0.5368244  )
        20           O   tau(  20) = (   0.5912412   0.5589858   0.5368244  )
        21           O   tau(  21) = (   0.2202830   0.2325379   0.5368244  )
        22           O   tau(  22) = (  -0.0823010   0.8482993   0.1166193  )
        23           O   tau(  23) = (  -0.1934983   0.3706010   0.1166193  )
        24           O   tau(  24) = (   0.2757993   0.5131505   0.1166193  )
        25           O   tau(  25) = (   0.1934855   0.3705936   1.3644430  )
        26           O   tau(  26) = (   0.0823138   0.8482919   1.3644430  )
        27           O   tau(  27) = (  -0.2757993   0.5131653   1.3644430  )
        28           O   tau(  28) = (  -0.0878870   0.2694458   0.9533686  )
        29           O   tau(  29) = (   0.3105971   0.6551893   0.9533686  )
        30           O   tau(  30) = (  -0.2227086   0.8074149   0.9533686  )

   Crystallographic axes

     site n.     atom                  positions (cryst. coord.)
         1           Fe1 tau(   1) = (  0.0000000  0.0000000  0.7767652  )
         2           Fe1 tau(   2) = (  0.3333330  0.6666670  0.9463058  )
         3           Fe1 tau(   3) = (  0.6666670  0.3333330  0.6091152  )
         4           Fe2 tau(   4) = (  0.6666670  0.3333330  0.1090991  )
         5           Fe2 tau(   5) = (  0.0000000  0.0000000  0.2767753  )
         6           Fe2 tau(   6) = (  0.3333330  0.6666670  0.4462921  )
         7           Bi  tau(   7) = (  0.6666670  0.3333330  0.8352117  )
         8           Bi  tau(   8) = (  0.3333330  0.6666670  0.6697508  )
         9           Bi  tau(   9) = (  0.3333330  0.6666670  0.1697199  )
        10           Bi  tau(  10) = (  0.0000000  0.0000000  0.0001130  )
        11           Bi  tau(  11) = (  0.0000000  0.0000000  0.5001308  )
        12           Bi  tau(  12) = (  0.6666670  0.3333330  0.3351910  )
        13           O   tau(  13) = (  0.0676856  0.7565520  0.8820212  )
        14           O   tau(  14) = (  0.2434480  0.3111326  0.8820212  )
        15           O   tau(  15) = (  0.6888674  0.9323144  0.8820212  )
        16           O   tau(  16) = (  0.7314750  0.6454493  0.7151312  )
        17           O   tau(  17) = (  0.3545507  0.0860267  0.7151312  )
        18           O   tau(  18) = (  0.9139733  0.2685250  0.7151312  )
        19           O   tau(  19) = (  0.7314884  0.0860282  0.2151125  )
        20           O   tau(  20) = (  0.9139718  0.6454612  0.2151125  )
        21           O   tau(  21) = (  0.3545388  0.2685116  0.2151125  )
        22           O   tau(  22) = (  0.4074649  0.9795317  0.0467309  )
        23           O   tau(  23) = (  0.0204683  0.4279331  0.0467309  )
        24           O   tau(  24) = (  0.5720669  0.5925351  0.0467309  )
        25           O   tau(  25) = (  0.4074478  0.4279246  0.5467499  )
        26           O   tau(  26) = (  0.5720754  0.9795232  0.5467499  )
        27           O   tau(  27) = (  0.0204768  0.5925522  0.5467499  )
        28           O   tau(  28) = (  0.0676775  0.3111292  0.3820271  )
        29           O   tau(  29) = (  0.6888708  0.7565474  0.3820271  )
        30           O   tau(  30) = (  0.2434526  0.9323225  0.3820271  )

     number of k points=     1  Gaussian smearing, width (Ry)=  0.0100
                       cart. coord. in units 2pi/alat
        k(    1) = (   0.0000000   0.0000000   0.0000000), wk =   1.0000000

                       cryst. coord.
        k(    1) = (   0.0000000   0.0000000   0.0000000), wk =   1.0000000

     Check: negative core charge=   -0.000640
     Generating pointlists ...
     new r_m :   0.1458 (alat units)  1.5374 (a.u.) for type    1
     new r_m :   0.1687 (alat units)  1.7788 (a.u.) for type    2
     new r_m :   0.1458 (alat units)  1.5374 (a.u.) for type    3
     new r_m :   0.1458 (alat units)  1.5374 (a.u.) for type    4
     Cannot read rho : file not found

     Initial potential from superposition of free atoms

     starting charge  281.99969, renormalised to  294.00000

     negative rho (up, down):  1.188E-01 1.188E-01
     Starting wfcs are  204 randomized atomic wfcs

     Self-consistent Calculation

     iteration #  1     ecut=    25.00 Ry     beta= 0.20
     CG style diagonalization
     c_bands:  2 eigenvalues not converged
     c_bands:  3 eigenvalues not converged
     ethr =  1.00E-05,  avg # of iterations = 14.7

     negative rho (up, down):  1.156E-01 1.156E-01

     total energy              =   -3188.21170492 Ry
     estimated scf accuracy    <      22.26318022 Ry

     total magnetization       =    -0.00 Bohr mag/cell
     absolute magnetization    =    30.43 Bohr mag/cell

     iteration #  2     ecut=    25.00 Ry     beta= 0.20
     CG style diagonalization
     ethr =  7.57E-03,  avg # of iterations =  3.0

[...]

     iteration # 17     ecut=    25.00 Ry     beta= 0.20
     CG style diagonalization
     c_bands:  1 eigenvalues not converged
     c_bands:  1 eigenvalues not converged
     ethr =  7.19E-06,  avg # of iterations =  3.3

[...]

     total energy              =   -3193.40210955 Ry
     estimated scf accuracy    <       0.00245349 Ry

[...]

     iteration # 20     ecut=    25.00 Ry     beta= 0.20
     CG style diagonalization
     ethr =  8.35E-07,  avg # of iterations =  3.1

     negative rho (up, down):  1.121E-01 1.121E-01

     Magnetic moment per site:
     atom:    1    charge:   13.0419    magn:   -3.7185    constr:    0.0000
     atom:    2    charge:   13.0465    magn:   -3.6001    constr:    0.0000
     atom:    3    charge:   13.0619    magn:   -3.5863    constr:    0.0000
     atom:    4    charge:   13.0553    magn:    3.5922    constr:    0.0000
     atom:    5    charge:   13.0415    magn:    3.7197    constr:    0.0000
     atom:    6    charge:   13.0489    magn:    3.5978    constr:    0.0000
     atom:    7    charge:   10.4689    magn:   -0.0145    constr:    0.0000
     atom:    8    charge:   10.4689    magn:   -0.0128    constr:    0.0000
     atom:    9    charge:   10.4690    magn:    0.0124    constr:    0.0000
     atom:   10    charge:   10.4732    magn:   -0.0092    constr:    0.0000
     atom:   11    charge:   10.4734    magn:    0.0094    constr:    0.0000
     atom:   12    charge:   10.4687    magn:    0.0145    constr:    0.0000
     atom:   13    charge:    5.4042    magn:   -0.2245    constr:    0.0000
     atom:   14    charge:    5.4042    magn:   -0.2245    constr:    0.0000
     atom:   15    charge:    5.4042    magn:   -0.2245    constr:    0.0000
     atom:   16    charge:    5.3977    magn:   -0.2411    constr:    0.0000
     atom:   17    charge:    5.3977    magn:   -0.2411    constr:    0.0000
     atom:   18    charge:    5.3977    magn:   -0.2411    constr:    0.0000
     atom:   19    charge:    5.3992    magn:    0.2404    constr:    0.0000
     atom:   20    charge:    5.3992    magn:    0.2404    constr:    0.0000
     atom:   21    charge:    5.3992    magn:    0.2404    constr:    0.0000
     atom:   22    charge:    5.3942    magn:    0.0698    constr:    0.0000
     atom:   23    charge:    5.3942    magn:    0.0698    constr:    0.0000
     atom:   24    charge:    5.3942    magn:    0.0698    constr:    0.0000
     atom:   25    charge:    5.3922    magn:   -0.0701    constr:    0.0000
     atom:   26    charge:    5.3922    magn:   -0.0701    constr:    0.0000
     atom:   27    charge:    5.3922    magn:   -0.0701    constr:    0.0000
     atom:   28    charge:    5.4044    magn:    0.2245    constr:    0.0000
     atom:   29    charge:    5.4044    magn:    0.2245    constr:    0.0000
     atom:   30    charge:    5.4044    magn:    0.2245    constr:    0.0000

     End of self-consistent calculation

 ------ SPIN UP ------------

          k = 0.0000 0.0000 0.0000 (  5411 PWs)   bands (ev):

   -79.4664 -79.4166 -79.2353 -74.5992 -74.4812 -74.4397 -45.3091 -45.3091
   -45.2577 -45.2446 -45.2446 -45.2336 -45.1699 -45.0175 -45.0175 -40.5955
   -40.5619 -40.5618 -40.4908 -40.4494 -40.4494 -40.4472 -40.4092 -40.4092
   -11.3974 -11.3974 -11.3717 -11.3717 -11.3378 -11.3238 -11.3238 -11.3221
   -11.2966 -11.2966 -11.2870 -11.2870 -11.2702 -11.2702 -11.2437 -11.2291
   -11.2228 -11.2228 -11.2114 -11.2114 -11.2017 -11.1998 -11.1998 -11.1917
   -11.1917 -11.1910 -11.1716 -11.1716 -11.1587 -11.1587  -7.9801  -7.5906
    -7.4913  -6.7506  -6.6755  -6.3139  -6.3138  -6.1596  -6.1595  -6.1497
    -6.0709  -6.0709  -5.9705  -5.9704  -5.7817  -5.7816  -5.6060  -5.6059
     0.7676   1.0023   1.0919   1.8586   1.9947   2.7403   4.9372   4.9372
     5.0709   5.4411   5.4411   5.5702   5.5774   5.5774   5.7755   5.7899
     5.7899   5.9780   6.0549   6.0549   6.2321   6.2321   6.3130   6.4536
     6.4537   6.4737   6.5755   6.7868   6.7868   7.0829   7.0829   7.2131
     7.3979   7.6408   7.6408   7.8551   7.8780   7.8780   8.0099   8.0099
     8.2474   8.3661   8.3661   8.4658   8.5314   8.5315   8.5768   8.6774
     8.6774   8.6999   8.8427   8.8427   9.0013   9.0013   9.3405   9.3406
     9.3952   9.3953   9.4045   9.4571   9.4572   9.8205   9.8205  10.1339
    10.2567  10.2567  10.2601  10.4278  10.5488  10.6657  10.7376  10.9666
    10.9667  11.6028  11.6028  12.1473  12.2152  12.2359  12.3646  12.3646
    12.5673  12.5673  12.7243  12.7243  13.3026  13.3026  13.8207  13.8207
    14.4239  14.4240  15.0229  15.1416  15.2573  15.3116  16.3546  16.3546
    16.5008  16.5008  16.5307  16.5307  16.8329  16.8937  17.0822  17.0822
    17.1623  17.1623  17.5735  17.5736  18.2972  19.6113  19.8300  20.0170
    20.6809  20.6809  20.9920  21.0751  21.6897  21.6897  21.7996  21.7996
    22.1440  22.1441  22.8851  23.0442  23.0586  23.0604  23.2103  23.3492

     occupation numbers
     1.0000   1.0000   1.0000   1.0000   1.0000   1.0000   1.0000   1.0000
     1.0000   1.0000   1.0000   1.0000   1.0000   1.0000   1.0000   1.0000
     1.0000   1.0000   1.0000   1.0000   1.0000   1.0000   1.0000   1.0000
     1.0000   1.0000   1.0000   1.0000   1.0000   1.0000   1.0000   1.0000
     1.0000   1.0000   1.0000   1.0000   1.0000   1.0000   1.0000   1.0000
     1.0000   1.0000   1.0000   1.0000   1.0000   1.0000   1.0000   1.0000
     1.0000   1.0000   1.0000   1.0000   1.0000   1.0000   1.0000   1.0000
     1.0000   1.0000   1.0000   1.0000   1.0000   1.0000   1.0000   1.0000
     1.0000   1.0000   1.0000   1.0000   1.0000   1.0000   1.0000   1.0000
     1.0000   1.0000   1.0000   1.0000   1.0000   1.0000   1.0000   1.0000
     1.0000   1.0000   1.0000   1.0000   1.0000   1.0000   1.0000   1.0000
     1.0000   1.0000   1.0000   1.0000   1.0000   1.0000   1.0000   1.0000
     1.0000   1.0000   1.0000   1.0000   1.0000   1.0000   1.0000   1.0000
     1.0000   1.0000   1.0000   1.0000   1.0000   1.0000   1.0000   1.0000
     1.0000   1.0000   1.0000   1.0000   1.0000   1.0000   1.0000   1.0000
     1.0000   1.0000   1.0000   1.0000   1.0000   1.0000   1.0000   1.0000
     1.0000   1.0000   1.0000   1.0000   1.0000   1.0000   1.0000   1.0000
     1.0000   1.0000   1.0000   1.0000   1.0000   1.0000   1.0000   1.0000
     1.0000   0.9984   0.9984   0.0034   0.0003   0.0001   0.0000   0.0000
     0.0000   0.0000   0.0000   0.0000   0.0000   0.0000   0.0000   0.0000
     0.0000   0.0000   0.0000   0.0000   0.0000   0.0000   0.0000   0.0000
     0.0000   0.0000   0.0000   0.0000   0.0000   0.0000   0.0000   0.0000
     0.0000   0.0000   0.0000   0.0000   0.0000   0.0000   0.0000   0.0000
     0.0000   0.0000   0.0000   0.0000   0.0000   0.0000   0.0000   0.0000
     0.0000   0.0000   0.0000   0.0000   0.0000   0.0000   0.0000   0.0000

 ------ SPIN DOWN ----------

          k = 0.0000 0.0000 0.0000 (  5411 PWs)   bands (ev):

   -79.4574 -79.4119 -79.2393 -74.6042 -74.4909 -74.4448 -45.3060 -45.3060
   -45.2408 -45.2378 -45.2378 -45.2299 -45.1445 -45.0355 -45.0355 -40.6005
   -40.5667 -40.5667 -40.5039 -40.4588 -40.4574 -40.4574 -40.4114 -40.4113
   -11.3974 -11.3974 -11.3717 -11.3717 -11.3374 -11.3240 -11.3240 -11.3222
   -11.2962 -11.2962 -11.2866 -11.2866 -11.2715 -11.2715 -11.2451 -11.2287
   -11.2235 -11.2235 -11.2113 -11.2113 -11.2002 -11.1992 -11.1992 -11.1932
   -11.1932 -11.1930 -11.1711 -11.1711 -11.1597 -11.1597  -7.9781  -7.5906
    -7.4937  -6.7489  -6.6777  -6.3085  -6.3084  -6.1583  -6.1582  -6.1530
    -6.0694  -6.0693  -5.9724  -5.9722  -5.7875  -5.7874  -5.6111  -5.6110
     0.7675   1.0016   1.0912   1.8579   1.9940   2.7394   4.9378   4.9378
     5.0735   5.4408   5.4408   5.5723   5.5776   5.5776   5.7745   5.7911
     5.7912   5.9811   6.0549   6.0549   6.2317   6.2317   6.3153   6.4547
     6.4548   6.4743   6.5744   6.7826   6.7826   7.0820   7.0820   7.2164
     7.3990   7.6387   7.6387   7.8626   7.8740   7.8741   8.0094   8.0094
     8.2514   8.3651   8.3652   8.4812   8.5268   8.5269   8.5812   8.6782
     8.6783   8.6994   8.8414   8.8414   8.9974   8.9974   9.3417   9.3418
     9.3936   9.3936   9.4061   9.4553   9.4553   9.8176   9.8176  10.1323
    10.2597  10.2608  10.2608  10.4276  10.5523  10.6643  10.7407  10.9687
    10.9688  11.6071  11.6071  12.1569  12.2210  12.2363  12.3592  12.3592
    12.5482  12.5483  12.7000  12.7001  13.3013  13.3014  13.8166  13.8166
    14.4182  14.4183  15.0251  15.1411  15.2565  15.3105  16.3552  16.3553
    16.4985  16.4985  16.5302  16.5302  16.8325  16.8926  17.0811  17.0811
    17.1614  17.1614  17.5713  17.5713  18.2991  19.6135  19.8312  20.0148
    20.6810  20.6810  20.9902  21.0741  21.6890  21.6889  21.7983  21.7983
    22.1437  22.1435  22.8898  23.0498  23.0568  23.0586  23.2098  23.3418

     occupation numbers
     1.0000   1.0000   1.0000   1.0000   1.0000   1.0000   1.0000   1.0000
     1.0000   1.0000   1.0000   1.0000   1.0000   1.0000   1.0000   1.0000
     1.0000   1.0000   1.0000   1.0000   1.0000   1.0000   1.0000   1.0000
     1.0000   1.0000   1.0000   1.0000   1.0000   1.0000   1.0000   1.0000
     1.0000   1.0000   1.0000   1.0000   1.0000   1.0000   1.0000   1.0000
     1.0000   1.0000   1.0000   1.0000   1.0000   1.0000   1.0000   1.0000
     1.0000   1.0000   1.0000   1.0000   1.0000   1.0000   1.0000   1.0000
     1.0000   1.0000   1.0000   1.0000   1.0000   1.0000   1.0000   1.0000
     1.0000   1.0000   1.0000   1.0000   1.0000   1.0000   1.0000   1.0000
     1.0000   1.0000   1.0000   1.0000   1.0000   1.0000   1.0000   1.0000
     1.0000   1.0000   1.0000   1.0000   1.0000   1.0000   1.0000   1.0000
     1.0000   1.0000   1.0000   1.0000   1.0000   1.0000   1.0000   1.0000
     1.0000   1.0000   1.0000   1.0000   1.0000   1.0000   1.0000   1.0000
     1.0000   1.0000   1.0000   1.0000   1.0000   1.0000   1.0000   1.0000
     1.0000   1.0000   1.0000   1.0000   1.0000   1.0000   1.0000   1.0000
     1.0000   1.0000   1.0000   1.0000   1.0000   1.0000   1.0000   1.0000
     1.0000   1.0000   1.0000   1.0000   1.0000   1.0000   1.0000   1.0000
     1.0000   1.0000   1.0000   1.0000   1.0000   1.0000   1.0000   1.0000
     1.0000   0.9982   0.9982   0.0025   0.0003   0.0001   0.0000   0.0000
     0.0000   0.0000   0.0000   0.0000   0.0000   0.0000   0.0000   0.0000
     0.0000   0.0000   0.0000   0.0000   0.0000   0.0000   0.0000   0.0000
     0.0000   0.0000   0.0000   0.0000   0.0000   0.0000   0.0000   0.0000
     0.0000   0.0000   0.0000   0.0000   0.0000   0.0000   0.0000   0.0000
     0.0000   0.0000   0.0000   0.0000   0.0000   0.0000   0.0000   0.0000
     0.0000   0.0000   0.0000   0.0000   0.0000   0.0000   0.0000   0.0000

     the Fermi energy is    11.8869 ev

!    total energy              =   -3193.40304717 Ry
     estimated scf accuracy    <       0.00090358 Ry
     smearing contrib. (-TS)   =      -0.00030453 Ry
     internal energy E=F+TS    =   -3193.40274264 Ry

     The total energy is F=E-TS. E is the sum of the following terms:
     one-electron contribution =   -1310.90878509 Ry
     hartree contribution      =     839.75913840 Ry
     xc contribution           =    -694.60396199 Ry
     ewald contribution        =   -2027.64913396 Ry

     total magnetization       =     0.00 Bohr mag/cell
     absolute magnetization    =    27.83 Bohr mag/cell

     convergence has been achieved in  20 iterations

     Writing output data file /home/aldair1809/Documentos/QE/4BFO/UHUBBARD/temp/kpoints_ecutwfc_1.in/bifeo3-scf.save/

     General routines

     Parallel routines

   This run was terminated on:  11:45:41  30Sep2024

   JOB DONE.