     Program PWSCF v.6.7MaX starts on 29Sep2024 at 12:20: 7

     R & G space division:  proc/nbgrp/npool/nimage =       4
     Waiting for input...
     Reading input from standard input

     Current dimensions of program PWSCF are:
     Max number of different atomic species (ntypx) = 10
     Max number of k-points (npk) =  40000
     Max angular momentum in pseudopotentials (lmaxx) =  3
     Message from routine iosys:
     wrong startingpot: use default (1)

     Message from routine setup:
     using ibrav=0 with symmetry is DISCOURAGED, use correct ibrav instead

     bravais-lattice index     =            0
     lattice parameter (alat)  =      10.5468  a.u.
     unit-cell volume          =    2535.5110 (a.u.)^3
     number of atoms/cell      =           30
     number of atomic types    =            4
     number of electrons       =       294.00
     number of Kohn-Sham states=          200
     kinetic-energy cutoff     =      25.0000  Ry
     charge density cutoff     =     100.0000  Ry
     scf convergence threshold =      1.0E-03
     mixing beta               =       0.2000
     number of iterations used =            8  plain     mixing
     Exchange-correlation=  SLA  PW   PBX  PBC
                           (   1   4   3   4   0   0   0)

     celldm(1)=  10.546849  celldm(2)=   0.000000  celldm(3)=   0.000000
     celldm(4)=   0.000000  celldm(5)=   0.000000  celldm(6)=   0.000000

     crystal axes: (cart. coord. in units of alat)
               a(1) = (   1.000000  -0.000000  -0.000000 )
               a(2) = (  -0.500000   0.866025  -0.000000 )
               a(3) = (   0.000000  -0.000000   2.495552 )

     reciprocal axes: (cart. coord. in units 2 pi/alat)
               b(1) = (  1.000000  0.577350  0.000000 )
               b(2) = (  0.000000  1.154701  0.000000 )
               b(3) = (  0.000000  0.000000  0.400713 )

     PseudoPot. # 1 for O  read from file:
     /home/aldair1809/Programas/QE/q-e-qe-7.3/pseudo/o_pbe_v1.2.uspp.F.UPF
     MD5 check sum: 734c27235a0248c51dbae37a1fbe46ec
     Pseudo is Ultrasoft + core correction, Zval =  6.0
     Generated by new atomic code, or converted to UPF format
     Using radial grid of  737 points,  5 beta functions with:
                l(1) =   0
                l(2) =   0
                l(3) =   1
                l(4) =   1
                l(5) =   2
     Q(r) pseudized with  8 coefficients,  rinner =    0.900   0.900   0.900
                                                       0.900   0.900

     PseudoPot. # 2 for Bi read from file:
     /home/aldair1809/Programas/QE/q-e-qe-7.3/pseudo/bi_pbe_v1.uspp.F.UPF
     MD5 check sum: cceb9f28ec65b6d7ff33140f5b0b1758
     Pseudo is Ultrasoft + core correction, Zval = 15.0
     Generated by new atomic code, or converted to UPF format
     Using radial grid of  899 points,  6 beta functions with:
                l(1) =   0
                l(2) =   0
                l(3) =   1
                l(4) =   1
                l(5) =   2
                l(6) =   2
     Q(r) pseudized with  6 coefficients,  rinner =    1.000   1.000   1.000
                                                       1.000   1.000

     PseudoPot. # 3 for Fe read from file:
     /home/aldair1809/Programas/QE/q-e-qe-7.3/pseudo/fe_pbe_v1.5.uspp.F.UPF
     MD5 check sum: a130daea23fe5165f5d574ae7f82ed95
     Pseudo is Ultrasoft + core correction, Zval = 16.0
     Generated by new atomic code, or converted to UPF format
     Using radial grid of  861 points,  6 beta functions with:
                l(1) =   0
                l(2) =   0
                l(3) =   1
                l(4) =   1
                l(5) =   2
                l(6) =   2
     Q(r) pseudized with  8 coefficients,  rinner =    1.000   1.000   1.000
                                                       1.000   1.000

     PseudoPot. # 4 for Fe read from file:
     /home/aldair1809/Programas/QE/q-e-qe-7.3/pseudo/fe_pbe_v1.5.uspp.F.UPF
     MD5 check sum: a130daea23fe5165f5d574ae7f82ed95
     Pseudo is Ultrasoft + core correction, Zval = 16.0
     Generated by new atomic code, or converted to UPF format
     Using radial grid of  861 points,  6 beta functions with:
                l(1) =   0
                l(2) =   0
                l(3) =   1
                l(4) =   1
                l(5) =   2
                l(6) =   2
     Q(r) pseudized with  8 coefficients,  rinner =    1.000   1.000   1.000
                                                       1.000   1.000

     atomic species   valence    mass     pseudopotential
        O              6.00    15.99940     O ( 1.00)
        Bi            15.00   208.98040     Bi( 1.00)
        Fe1           16.00    55.84500     Fe( 1.00)
        Fe2           16.00    55.84500     Fe( 1.00)

     Starting magnetic structure
     atomic species   magnetization
        O            0.000
        Bi           0.000
        Fe1         -0.800
        Fe2          0.800

      3 Sym. Ops. (no inversion) found

                                    s                        frac. trans.

      isym =  1     identity

 cryst.   s( 1) = (     1          0          0      )
                  (     0          1          0      )
                  (     0          0          1      )

 cart.    s( 1) = (  1.0000000 -0.0000000  0.0000000 )
                  (  0.0000000  1.0000000  0.0000000 )
                  (  0.0000000  0.0000000  1.0000000 )

      isym =  2     120 deg rotation - cryst. axis [0,0,1]

[...]

      isym =  3     120 deg rotation - cryst. axis [0,0,-1]

 cryst.   s( 3) = (    -1         -1          0      )
                  (     1          0          0      )
                  (     0          0          1      )

 cart.    s( 3) = ( -0.5000000  0.8660254  0.0000000 )
                  ( -0.8660254 -0.5000000  0.0000000 )
                  (  0.0000000  0.0000000  1.0000000 )

   Cartesian axes

     site n.     atom                  positions (alat units)
         1           Fe1 tau(   1) = (   0.0000000   0.0000000   1.9384582  )
         2           Fe1 tau(   2) = (  -0.0000005   0.5773506   2.3615556  )
         3           Fe1 tau(   3) = (   0.5000005   0.2886748   1.5200787  )
         4           Fe2 tau(   4) = (   0.5000005   0.2886748   0.2722626  )
         5           Fe2 tau(   5) = (   0.0000000   0.0000000   0.6907071  )
         6           Fe2 tau(   6) = (  -0.0000005   0.5773506   1.1137452  )
         7           Bi  tau(   7) = (   0.5000005   0.2886748   2.0843143  )
         8           Bi  tau(   8) = (  -0.0000005   0.5773506   1.6713980  )
         9           Bi  tau(   9) = (  -0.0000005   0.5773506   0.4235448  )
        10           Bi  tau(  10) = (   0.0000000   0.0000000   0.0002821  )
        11           Bi  tau(  11) = (   0.0000000   0.0000000   1.2481025  )
        12           Bi  tau(  12) = (   0.5000005   0.2886748   0.8364865  )
        13           O   tau(  13) = (  -0.3105904   0.6551932   2.2011299  )
        14           O   tau(  14) = (   0.0878817   0.2694488   2.2011299  )
        15           O   tau(  15) = (   0.2227102   0.8074080   2.2011299  )
        16           O   tau(  16) = (   0.4087504   0.5589755   1.7846473  )
        17           O   tau(  17) = (   0.3115373   0.0745013   1.7846473  )
        18           O   tau(  18) = (   0.7797108   0.2325494   1.7846473  )
        19           O   tau(  19) = (   0.6884743   0.0745026   0.5368244  )
        20           O   tau(  20) = (   0.5912412   0.5589858   0.5368244  )
        21           O   tau(  21) = (   0.2202830   0.2325379   0.5368244  )
        22           O   tau(  22) = (  -0.0823010   0.8482993   0.1166193  )
        23           O   tau(  23) = (  -0.1934983   0.3706010   0.1166193  )
        24           O   tau(  24) = (   0.2757993   0.5131505   0.1166193  )
        25           O   tau(  25) = (   0.1934855   0.3705936   1.3644430  )
        26           O   tau(  26) = (   0.0823138   0.8482919   1.3644430  )
        27           O   tau(  27) = (  -0.2757993   0.5131653   1.3644430  )
        28           O   tau(  28) = (  -0.0878870   0.2694458   0.9533686  )
        29           O   tau(  29) = (   0.3105971   0.6551893   0.9533686  )
        30           O   tau(  30) = (  -0.2227086   0.8074149   0.9533686  )

   Crystallographic axes

     site n.     atom                  positions (cryst. coord.)
         1           Fe1 tau(   1) = (  0.0000000  0.0000000  0.7767652  )
         2           Fe1 tau(   2) = (  0.3333330  0.6666670  0.9463058  )
         3           Fe1 tau(   3) = (  0.6666670  0.3333330  0.6091152  )
         4           Fe2 tau(   4) = (  0.6666670  0.3333330  0.1090991  )
         5           Fe2 tau(   5) = (  0.0000000  0.0000000  0.2767753  )
         6           Fe2 tau(   6) = (  0.3333330  0.6666670  0.4462921  )
         7           Bi  tau(   7) = (  0.6666670  0.3333330  0.8352117  )
         8           Bi  tau(   8) = (  0.3333330  0.6666670  0.6697508  )
         9           Bi  tau(   9) = (  0.3333330  0.6666670  0.1697199  )
        10           Bi  tau(  10) = (  0.0000000  0.0000000  0.0001130  )
        11           Bi  tau(  11) = (  0.0000000  0.0000000  0.5001308  )
        12           Bi  tau(  12) = (  0.6666670  0.3333330  0.3351910  )
        13           O   tau(  13) = (  0.0676856  0.7565520  0.8820212  )
        14           O   tau(  14) = (  0.2434480  0.3111326  0.8820212  )
        15           O   tau(  15) = (  0.6888674  0.9323144  0.8820212  )
        16           O   tau(  16) = (  0.7314750  0.6454493  0.7151312  )
        17           O   tau(  17) = (  0.3545507  0.0860267  0.7151312  )
        18           O   tau(  18) = (  0.9139733  0.2685250  0.7151312  )
        19           O   tau(  19) = (  0.7314884  0.0860282  0.2151125  )
        20           O   tau(  20) = (  0.9139718  0.6454612  0.2151125  )
        21           O   tau(  21) = (  0.3545388  0.2685116  0.2151125  )
        22           O   tau(  22) = (  0.4074649  0.9795317  0.0467309  )
        23           O   tau(  23) = (  0.0204683  0.4279331  0.0467309  )
        24           O   tau(  24) = (  0.5720669  0.5925351  0.0467309  )
        25           O   tau(  25) = (  0.4074478  0.4279246  0.5467499  )
        26           O   tau(  26) = (  0.5720754  0.9795232  0.5467499  )
        27           O   tau(  27) = (  0.0204768  0.5925522  0.5467499  )
        28           O   tau(  28) = (  0.0676775  0.3111292  0.3820271  )
        29           O   tau(  29) = (  0.6888708  0.7565474  0.3820271  )
        30           O   tau(  30) = (  0.2434526  0.9323225  0.3820271  )

     number of k points=     2  Gaussian smearing, width (Ry)=  0.0100
                       cart. coord. in units 2pi/alat
        k(    1) = (   0.0000000   0.0000000   0.0000000), wk =   0.2500000
        k(    2) = (   0.0000000  -0.5773503   0.0000000), wk =   0.7500000

                       cryst. coord.
        k(    1) = (   0.0000000   0.0000000   0.0000000), wk =   0.2500000
        k(    2) = (   0.0000000  -0.5000000   0.0000000), wk =   0.7500000

     Check: negative core charge=   -0.000640
     Generating pointlists ...
     new r_m :   0.1458 (alat units)  1.5374 (a.u.) for type    1
     new r_m :   0.1687 (alat units)  1.7788 (a.u.) for type    2
     new r_m :   0.1458 (alat units)  1.5374 (a.u.) for type    3
     new r_m :   0.1458 (alat units)  1.5374 (a.u.) for type    4

     Initial potential from superposition of free atoms

     starting charge  281.99969, renormalised to  294.00000

     negative rho (up, down):  1.188E-01 1.188E-01
     Starting wfcs are  204 randomized atomic wfcs

     Self-consistent Calculation

     iteration #  1     ecut=    25.00 Ry     beta= 0.20
     CG style diagonalization
     ethr =  1.00E-02,  avg # of iterations =  2.7

     negative rho (up, down):  1.151E-01 1.151E-01

     total energy              =   -3187.39358986 Ry
     estimated scf accuracy    <      22.94495521 Ry

     total magnetization       =     0.00 Bohr mag/cell
     absolute magnetization    =    30.62 Bohr mag/cell

[...]

     iteration #  8     ecut=    25.00 Ry     beta= 0.20
     CG style diagonalization
     c_bands:  1 eigenvalues not converged
     c_bands:  2 eigenvalues not converged
     c_bands:  1 eigenvalues not converged
     c_bands:  1 eigenvalues not converged
     ethr =  2.69E-05,  avg # of iterations =  3.6

[...]

     iteration # 10     ecut=    25.00 Ry     beta= 0.20
     CG style diagonalization
     ethr =  2.69E-05,  avg # of iterations =  3.0

[...]

     total energy              =   -3193.08724218 Ry
     estimated scf accuracy    <       0.00153133 Ry

[...]

     iteration # 14     ecut=    25.00 Ry     beta= 0.20
     CG style diagonalization
     c_bands:  1 eigenvalues not converged
     c_bands:  1 eigenvalues not converged
     ethr =  5.21E-07,  avg # of iterations =  3.1

     negative rho (up, down):  1.117E-01 1.117E-01

     Magnetic moment per site:
     atom:    1    charge:   13.0478    magn:   -3.7160    constr:    0.0000
     atom:    2    charge:   13.0556    magn:   -3.6008    constr:    0.0000
     atom:    3    charge:   13.0676    magn:   -3.5942    constr:    0.0000
     atom:    4    charge:   13.0651    magn:    3.5955    constr:    0.0000
     atom:    5    charge:   13.0465    magn:    3.7167    constr:    0.0000
     atom:    6    charge:   13.0531    magn:    3.6020    constr:    0.0000
     atom:    7    charge:   10.4877    magn:   -0.0161    constr:    0.0000
     atom:    8    charge:   10.4871    magn:   -0.0128    constr:    0.0000
     atom:    9    charge:   10.4871    magn:    0.0128    constr:    0.0000
     atom:   10    charge:   10.4894    magn:   -0.0045    constr:    0.0000
     atom:   11    charge:   10.4894    magn:    0.0045    constr:    0.0000
     atom:   12    charge:   10.4877    magn:    0.0161    constr:    0.0000
     atom:   13    charge:    5.3964    magn:   -0.2162    constr:    0.0000
     atom:   14    charge:    5.3964    magn:   -0.2162    constr:    0.0000
     atom:   15    charge:    5.3964    magn:   -0.2162    constr:    0.0000
     atom:   16    charge:    5.3934    magn:   -0.2280    constr:    0.0000
     atom:   17    charge:    5.3934    magn:   -0.2280    constr:    0.0000
     atom:   18    charge:    5.3934    magn:   -0.2280    constr:    0.0000
     atom:   19    charge:    5.3931    magn:    0.2278    constr:    0.0000
     atom:   20    charge:    5.3931    magn:    0.2278    constr:    0.0000
     atom:   21    charge:    5.3931    magn:    0.2278    constr:    0.0000
     atom:   22    charge:    5.3863    magn:    0.0672    constr:    0.0000
     atom:   23    charge:    5.3863    magn:    0.0672    constr:    0.0000
     atom:   24    charge:    5.3863    magn:    0.0672    constr:    0.0000
     atom:   25    charge:    5.3861    magn:   -0.0679    constr:    0.0000
     atom:   26    charge:    5.3861    magn:   -0.0679    constr:    0.0000
     atom:   27    charge:    5.3861    magn:   -0.0679    constr:    0.0000
     atom:   28    charge:    5.3963    magn:    0.2160    constr:    0.0000
     atom:   29    charge:    5.3963    magn:    0.2160    constr:    0.0000
     atom:   30    charge:    5.3963    magn:    0.2160    constr:    0.0000

     End of self-consistent calculation

 ------ SPIN UP ------------

          k = 0.0000 0.0000 0.0000 (  5411 PWs)   bands (ev):

   -79.6898 -79.4826 -79.3883 -74.6995 -74.6484 -74.5608 -45.5435 -45.4853
   -45.4852 -45.3069 -45.3069 -45.2889 -45.2888 -45.1726 -45.1726 -40.7060
   -40.6572 -40.6572 -40.6467 -40.6064 -40.6064 -40.5715 -40.5224 -40.5224
   -11.2486 -11.2486 -11.2129 -11.2129 -11.1909 -11.1909 -11.1608 -11.1483
   -11.1371 -11.1371 -11.1320 -11.1320 -11.1235 -11.1235 -11.1012 -11.0863
   -11.0772 -11.0772 -11.0675 -11.0675 -11.0661 -11.0661 -11.0561 -11.0526
   -11.0526 -11.0443 -11.0270 -11.0270 -11.0150 -11.0150  -7.9826  -7.6061
    -7.5093  -6.7544  -6.7016  -6.3071  -6.3070  -6.1815  -6.1811  -6.1810
    -6.0834  -6.0834  -5.9856  -5.9855  -5.8275  -5.8275  -5.6572  -5.6571
     0.8237   1.0610   1.1375   1.9080   2.0436   2.7933   4.9465   4.9465
     5.0640   5.4387   5.4387   5.5434   5.5435   5.5435   5.7295   5.7373
     5.7373   5.9499   6.0103   6.0103   6.2048   6.2049   6.2667   6.4265
     6.4266   6.4277   6.5200   6.7355   6.7355   7.0168   7.0168   7.1750
     7.3325   7.6103   7.6104   7.7222   7.8510   7.8511   7.9592   7.9592
     8.1558   8.2838   8.3431   8.3431   8.5059   8.5059   8.5212   8.6460
     8.6655   8.6656   8.8210   8.8210   8.9742   8.9742   9.3190   9.3191
     9.3695   9.3699   9.3700   9.4268   9.4269   9.7722   9.7723  10.0949
    10.1859  10.1859  10.2586  10.4317  10.5282  10.6631  10.7351  10.8842
    10.8842  11.5230  11.5230  12.0410  12.0410  12.2726  12.2751  12.2751
    12.3454  12.3677  12.4259  12.4259  13.2007  13.2007  13.8310  13.8310
    14.3769  14.3769  15.0662  15.1821  15.2855  15.3331  16.3814  16.3814
    16.5173  16.5174  16.5587  16.5588  16.8553  16.9138  17.1049  17.1050
    17.1861  17.1862  17.5959  17.5959  18.2976  19.5997  19.8207  19.9914
    20.6960  20.6960  20.9771  21.0593  21.6988  21.6989  21.8076  21.8077
    22.1311  22.1313  22.8628  23.0348  23.0550  23.0554  23.2057  23.7317

     occupation numbers
     1.0000   1.0000   1.0000   1.0000   1.0000   1.0000   1.0000   1.0000
     1.0000   1.0000   1.0000   1.0000   1.0000   1.0000   1.0000   1.0000
     1.0000   1.0000   1.0000   1.0000   1.0000   1.0000   1.0000   1.0000
     1.0000   1.0000   1.0000   1.0000   1.0000   1.0000   1.0000   1.0000
     1.0000   1.0000   1.0000   1.0000   1.0000   1.0000   1.0000   1.0000
     1.0000   1.0000   1.0000   1.0000   1.0000   1.0000   1.0000   1.0000
     1.0000   1.0000   1.0000   1.0000   1.0000   1.0000   1.0000   1.0000
     1.0000   1.0000   1.0000   1.0000   1.0000   1.0000   1.0000   1.0000
     1.0000   1.0000   1.0000   1.0000   1.0000   1.0000   1.0000   1.0000
     1.0000   1.0000   1.0000   1.0000   1.0000   1.0000   1.0000   1.0000
     1.0000   1.0000   1.0000   1.0000   1.0000   1.0000   1.0000   1.0000
     1.0000   1.0000   1.0000   1.0000   1.0000   1.0000   1.0000   1.0000
     1.0000   1.0000   1.0000   1.0000   1.0000   1.0000   1.0000   1.0000
     1.0000   1.0000   1.0000   1.0000   1.0000   1.0000   1.0000   1.0000
     1.0000   1.0000   1.0000   1.0000   1.0000   1.0000   1.0000   1.0000
     1.0000   1.0000   1.0000   1.0000   1.0000   1.0000   1.0000   1.0000
     1.0000   1.0000   1.0000   1.0000   1.0000   1.0000   1.0000   1.0000
     1.0000   1.0000   1.0000   1.0000   1.0000   1.0000   1.0000   1.0000
     1.0000   0.9946   0.9946   0.0023   0.0023   0.0000   0.0000   0.0000
     0.0000   0.0000   0.0000   0.0000   0.0000   0.0000   0.0000   0.0000
     0.0000   0.0000   0.0000   0.0000   0.0000   0.0000   0.0000   0.0000
     0.0000   0.0000   0.0000   0.0000   0.0000   0.0000   0.0000   0.0000
     0.0000   0.0000   0.0000   0.0000   0.0000   0.0000   0.0000   0.0000
     0.0000   0.0000   0.0000   0.0000   0.0000   0.0000   0.0000   0.0000
     0.0000   0.0000   0.0000   0.0000   0.0000   0.0000   0.0000   0.0000

[...]

 ------ SPIN DOWN ----------

[...]

          k = 0.0000-0.5774 0.0000 (  5314 PWs)   bands (ev):

   -79.6905 -79.4842 -79.3905 -74.6916 -74.6399 -74.5521 -45.5287 -45.4756
   -45.4740 -45.2979 -45.2957 -45.2790 -45.2720 -45.1643 -45.1624 -40.6836
   -40.6394 -40.6392 -40.6231 -40.5884 -40.5861 -40.5487 -40.5041 -40.5024
   -11.2429 -11.2133 -11.1972 -11.1905 -11.1835 -11.1770 -11.1669 -11.1534
   -11.1376 -11.1329 -11.1252 -11.1209 -11.1120 -11.1103 -11.1045 -11.0949
   -11.0854 -11.0823 -11.0762 -11.0723 -11.0696 -11.0677 -11.0641 -11.0547
   -11.0529 -11.0422 -11.0387 -11.0305 -11.0280 -11.0152  -7.3404  -7.2971
    -7.1242  -6.9621  -6.9154  -6.5540  -6.5297  -6.4383  -6.2983  -6.2139
    -6.1845  -6.1549  -6.0877  -6.0183  -5.9011  -5.8566  -5.7638  -5.6735
     1.0038   1.2260   1.2462   1.5389   1.6009   1.8113   5.0565   5.3250
     5.3752   5.4601   5.6827   5.6888   5.8237   5.8468   5.8751   6.0285
     6.0643   6.1236   6.2167   6.2942   6.4953   6.5797   6.6374   6.7318
     6.7770   6.8328   6.9957   7.0570   7.1562   7.2194   7.2742   7.4139
     7.4711   7.5109   7.6471   7.7408   7.7870   7.8164   7.9110   7.9690
     8.0705   8.1607   8.2151   8.2732   8.3605   8.3659   8.4896   8.5247
     8.5819   8.6418   8.7172   8.7782   8.9579   9.1007   9.1093   9.1480
     9.2034   9.2584   9.2865   9.3874   9.4408   9.5163   9.5833   9.8319
    10.0544  10.1883  10.3487  10.3766  10.4443  10.5927  10.8636  10.9086
    11.0156  11.0232  11.4758  12.0347  12.1093  12.2311  12.3005  12.3545
    12.4061  12.4322  12.6209  12.7150  13.2794  13.3535  13.5419  13.7012
    13.7822  14.2991  14.5616  15.1195  15.1648  15.3599  15.4380  15.4733
    15.5162  15.5628  15.6411  16.6508  16.6967  16.7793  16.8492  16.9348
    16.9996  17.0713  17.1317  17.2101  20.0652  20.2327  20.5049  21.0103
    21.1504  21.2331  21.7134  21.8705  22.0014  22.3035  22.3462  22.3635
    22.4808  22.5271  22.8591  22.9172  23.1423  23.2044  23.2628  23.3204

     occupation numbers
     1.0000   1.0000   1.0000   1.0000   1.0000   1.0000   1.0000   1.0000
     1.0000   1.0000   1.0000   1.0000   1.0000   1.0000   1.0000   1.0000
     1.0000   1.0000   1.0000   1.0000   1.0000   1.0000   1.0000   1.0000
     1.0000   1.0000   1.0000   1.0000   1.0000   1.0000   1.0000   1.0000
     1.0000   1.0000   1.0000   1.0000   1.0000   1.0000   1.0000   1.0000
     1.0000   1.0000   1.0000   1.0000   1.0000   1.0000   1.0000   1.0000
     1.0000   1.0000   1.0000   1.0000   1.0000   1.0000   1.0000   1.0000
     1.0000   1.0000   1.0000   1.0000   1.0000   1.0000   1.0000   1.0000
     1.0000   1.0000   1.0000   1.0000   1.0000   1.0000   1.0000   1.0000
     1.0000   1.0000   1.0000   1.0000   1.0000   1.0000   1.0000   1.0000
     1.0000   1.0000   1.0000   1.0000   1.0000   1.0000   1.0000   1.0000
     1.0000   1.0000   1.0000   1.0000   1.0000   1.0000   1.0000   1.0000
     1.0000   1.0000   1.0000   1.0000   1.0000   1.0000   1.0000   1.0000
     1.0000   1.0000   1.0000   1.0000   1.0000   1.0000   1.0000   1.0000
     1.0000   1.0000   1.0000   1.0000   1.0000   1.0000   1.0000   1.0000
     1.0000   1.0000   1.0000   1.0000   1.0000   1.0000   1.0000   1.0000
     1.0000   1.0000   1.0000   1.0000   1.0000   1.0000   1.0000   1.0000
     1.0000   1.0000   1.0000   1.0000   1.0000   1.0000   1.0000   1.0000
     1.0000   1.0000   0.9988   0.0028   0.0002   0.0000   0.0000   0.0000
     0.0000   0.0000   0.0000   0.0000   0.0000   0.0000   0.0000   0.0000
     0.0000   0.0000   0.0000   0.0000   0.0000   0.0000   0.0000   0.0000
     0.0000   0.0000   0.0000   0.0000   0.0000   0.0000   0.0000   0.0000
     0.0000   0.0000   0.0000   0.0000   0.0000   0.0000   0.0000   0.0000
     0.0000   0.0000   0.0000   0.0000   0.0000   0.0000   0.0000   0.0000
     0.0000   0.0000   0.0000   0.0000   0.0000   0.0000   0.0000   0.0000

     the Fermi energy is    11.7684 ev

!    total energy              =   -3193.08700718 Ry
     estimated scf accuracy    <       0.00051672 Ry
     smearing contrib. (-TS)   =      -0.00030309 Ry
     internal energy E=F+TS    =   -3193.08670409 Ry

     The total energy is F=E-TS. E is the sum of the following terms:
     one-electron contribution =   -1311.19072461 Ry
     hartree contribution      =     840.28906757 Ry
     xc contribution           =    -694.53591309 Ry
     ewald contribution        =   -2027.64913396 Ry

     total magnetization       =     0.00 Bohr mag/cell
     absolute magnetization    =    27.59 Bohr mag/cell

     convergence has been achieved in  14 iterations

     Writing output data file /home/aldair1809/Documentos/QE/4BFO/UHUBBARD/temp/ecut_ecutwfc_25.in/bifeo3-scf.save/

     General routines

     Parallel routines

   This run was terminated on:  12:31:37  29Sep2024

   JOB DONE.