     Program PWSCF v.6.7MaX starts on 29Sep2024 at 12:59:25

     R & G space division:  proc/nbgrp/npool/nimage =       4
     Waiting for input...
     Reading input from standard input

     Current dimensions of program PWSCF are:
     Max number of different atomic species (ntypx) = 10
     Max number of k-points (npk) =  40000
     Max angular momentum in pseudopotentials (lmaxx) =  3
     Message from routine iosys:
     wrong startingpot: use default (1)

     Message from routine setup:
     using ibrav=0 with symmetry is DISCOURAGED, use correct ibrav instead

     bravais-lattice index     =            0
     lattice parameter (alat)  =      10.5468  a.u.
     unit-cell volume          =    2535.5110 (a.u.)^3
     number of atoms/cell      =           30
     number of atomic types    =            4
     number of electrons       =       294.00
     number of Kohn-Sham states=          200
     kinetic-energy cutoff     =      40.0000  Ry
     charge density cutoff     =     160.0000  Ry
     scf convergence threshold =      1.0E-03
     mixing beta               =       0.2000
     number of iterations used =            8  plain     mixing
     Exchange-correlation=  SLA  PW   PBX  PBC
                           (   1   4   3   4   0   0   0)

     celldm(1)=  10.546849  celldm(2)=   0.000000  celldm(3)=   0.000000
     celldm(4)=   0.000000  celldm(5)=   0.000000  celldm(6)=   0.000000

     crystal axes: (cart. coord. in units of alat)
               a(1) = (   1.000000  -0.000000  -0.000000 )
               a(2) = (  -0.500000   0.866025  -0.000000 )
               a(3) = (   0.000000  -0.000000   2.495552 )

     reciprocal axes: (cart. coord. in units 2 pi/alat)
               b(1) = (  1.000000  0.577350  0.000000 )
               b(2) = (  0.000000  1.154701  0.000000 )
               b(3) = (  0.000000  0.000000  0.400713 )

     PseudoPot. # 1 for O  read from file:
     /home/aldair1809/Programas/QE/q-e-qe-7.3/pseudo/o_pbe_v1.2.uspp.F.UPF
     MD5 check sum: 734c27235a0248c51dbae37a1fbe46ec
     Pseudo is Ultrasoft + core correction, Zval =  6.0
     Generated by new atomic code, or converted to UPF format
     Using radial grid of  737 points,  5 beta functions with:
                l(1) =   0
                l(2) =   0
                l(3) =   1
                l(4) =   1
                l(5) =   2
     Q(r) pseudized with  8 coefficients,  rinner =    0.900   0.900   0.900
                                                       0.900   0.900

     PseudoPot. # 2 for Bi read from file:
     /home/aldair1809/Programas/QE/q-e-qe-7.3/pseudo/bi_pbe_v1.uspp.F.UPF
     MD5 check sum: cceb9f28ec65b6d7ff33140f5b0b1758
     Pseudo is Ultrasoft + core correction, Zval = 15.0
     Generated by new atomic code, or converted to UPF format
     Using radial grid of  899 points,  6 beta functions with:
                l(1) =   0
                l(2) =   0
                l(3) =   1
                l(4) =   1
                l(5) =   2
                l(6) =   2
     Q(r) pseudized with  6 coefficients,  rinner =    1.000   1.000   1.000
                                                       1.000   1.000

     PseudoPot. # 3 for Fe read from file:
     /home/aldair1809/Programas/QE/q-e-qe-7.3/pseudo/fe_pbe_v1.5.uspp.F.UPF
     MD5 check sum: a130daea23fe5165f5d574ae7f82ed95
     Pseudo is Ultrasoft + core correction, Zval = 16.0
     Generated by new atomic code, or converted to UPF format
     Using radial grid of  861 points,  6 beta functions with:
                l(1) =   0
                l(2) =   0
                l(3) =   1
                l(4) =   1
                l(5) =   2
                l(6) =   2
     Q(r) pseudized with  8 coefficients,  rinner =    1.000   1.000   1.000
                                                       1.000   1.000

     PseudoPot. # 4 for Fe read from file:
     /home/aldair1809/Programas/QE/q-e-qe-7.3/pseudo/fe_pbe_v1.5.uspp.F.UPF
     MD5 check sum: a130daea23fe5165f5d574ae7f82ed95
     Pseudo is Ultrasoft + core correction, Zval = 16.0
     Generated by new atomic code, or converted to UPF format
     Using radial grid of  861 points,  6 beta functions with:
                l(1) =   0
                l(2) =   0
                l(3) =   1
                l(4) =   1
                l(5) =   2
                l(6) =   2
     Q(r) pseudized with  8 coefficients,  rinner =    1.000   1.000   1.000
                                                       1.000   1.000

     atomic species   valence    mass     pseudopotential
        O              6.00    15.99940     O ( 1.00)
        Bi            15.00   208.98040     Bi( 1.00)
        Fe1           16.00    55.84500     Fe( 1.00)
        Fe2           16.00    55.84500     Fe( 1.00)

     Starting magnetic structure
     atomic species   magnetization
        O            0.000
        Bi           0.000
        Fe1         -0.800
        Fe2          0.800

      3 Sym. Ops. (no inversion) found

                                    s                        frac. trans.

      isym =  1     identity

 cryst.   s( 1) = (     1          0          0      )
                  (     0          1          0      )
                  (     0          0          1      )

 cart.    s( 1) = (  1.0000000 -0.0000000  0.0000000 )
                  (  0.0000000  1.0000000  0.0000000 )
                  (  0.0000000  0.0000000  1.0000000 )

      isym =  2     120 deg rotation - cryst. axis [0,0,1]

[...]

      isym =  3     120 deg rotation - cryst. axis [0,0,-1]

 cryst.   s( 3) = (    -1         -1          0      )
                  (     1          0          0      )
                  (     0          0          1      )

 cart.    s( 3) = ( -0.5000000  0.8660254  0.0000000 )
                  ( -0.8660254 -0.5000000  0.0000000 )
                  (  0.0000000  0.0000000  1.0000000 )

   Cartesian axes

     site n.     atom                  positions (alat units)
         1           Fe1 tau(   1) = (   0.0000000   0.0000000   1.9384582  )
         2           Fe1 tau(   2) = (  -0.0000005   0.5773506   2.3615556  )
         3           Fe1 tau(   3) = (   0.5000005   0.2886748   1.5200787  )
         4           Fe2 tau(   4) = (   0.5000005   0.2886748   0.2722626  )
         5           Fe2 tau(   5) = (   0.0000000   0.0000000   0.6907071  )
         6           Fe2 tau(   6) = (  -0.0000005   0.5773506   1.1137452  )
         7           Bi  tau(   7) = (   0.5000005   0.2886748   2.0843143  )
         8           Bi  tau(   8) = (  -0.0000005   0.5773506   1.6713980  )
         9           Bi  tau(   9) = (  -0.0000005   0.5773506   0.4235448  )
        10           Bi  tau(  10) = (   0.0000000   0.0000000   0.0002821  )
        11           Bi  tau(  11) = (   0.0000000   0.0000000   1.2481025  )
        12           Bi  tau(  12) = (   0.5000005   0.2886748   0.8364865  )
        13           O   tau(  13) = (  -0.3105904   0.6551932   2.2011299  )
        14           O   tau(  14) = (   0.0878817   0.2694488   2.2011299  )
        15           O   tau(  15) = (   0.2227102   0.8074080   2.2011299  )
        16           O   tau(  16) = (   0.4087504   0.5589755   1.7846473  )
        17           O   tau(  17) = (   0.3115373   0.0745013   1.7846473  )
        18           O   tau(  18) = (   0.7797108   0.2325494   1.7846473  )
        19           O   tau(  19) = (   0.6884743   0.0745026   0.5368244  )
        20           O   tau(  20) = (   0.5912412   0.5589858   0.5368244  )
        21           O   tau(  21) = (   0.2202830   0.2325379   0.5368244  )
        22           O   tau(  22) = (  -0.0823010   0.8482993   0.1166193  )
        23           O   tau(  23) = (  -0.1934983   0.3706010   0.1166193  )
        24           O   tau(  24) = (   0.2757993   0.5131505   0.1166193  )
        25           O   tau(  25) = (   0.1934855   0.3705936   1.3644430  )
        26           O   tau(  26) = (   0.0823138   0.8482919   1.3644430  )
        27           O   tau(  27) = (  -0.2757993   0.5131653   1.3644430  )
        28           O   tau(  28) = (  -0.0878870   0.2694458   0.9533686  )
        29           O   tau(  29) = (   0.3105971   0.6551893   0.9533686  )
        30           O   tau(  30) = (  -0.2227086   0.8074149   0.9533686  )

   Crystallographic axes

     site n.     atom                  positions (cryst. coord.)
         1           Fe1 tau(   1) = (  0.0000000  0.0000000  0.7767652  )
         2           Fe1 tau(   2) = (  0.3333330  0.6666670  0.9463058  )
         3           Fe1 tau(   3) = (  0.6666670  0.3333330  0.6091152  )
         4           Fe2 tau(   4) = (  0.6666670  0.3333330  0.1090991  )
         5           Fe2 tau(   5) = (  0.0000000  0.0000000  0.2767753  )
         6           Fe2 tau(   6) = (  0.3333330  0.6666670  0.4462921  )
         7           Bi  tau(   7) = (  0.6666670  0.3333330  0.8352117  )
         8           Bi  tau(   8) = (  0.3333330  0.6666670  0.6697508  )
         9           Bi  tau(   9) = (  0.3333330  0.6666670  0.1697199  )
        10           Bi  tau(  10) = (  0.0000000  0.0000000  0.0001130  )
        11           Bi  tau(  11) = (  0.0000000  0.0000000  0.5001308  )
        12           Bi  tau(  12) = (  0.6666670  0.3333330  0.3351910  )
        13           O   tau(  13) = (  0.0676856  0.7565520  0.8820212  )
        14           O   tau(  14) = (  0.2434480  0.3111326  0.8820212  )
        15           O   tau(  15) = (  0.6888674  0.9323144  0.8820212  )
        16           O   tau(  16) = (  0.7314750  0.6454493  0.7151312  )
        17           O   tau(  17) = (  0.3545507  0.0860267  0.7151312  )
        18           O   tau(  18) = (  0.9139733  0.2685250  0.7151312  )
        19           O   tau(  19) = (  0.7314884  0.0860282  0.2151125  )
        20           O   tau(  20) = (  0.9139718  0.6454612  0.2151125  )
        21           O   tau(  21) = (  0.3545388  0.2685116  0.2151125  )
        22           O   tau(  22) = (  0.4074649  0.9795317  0.0467309  )
        23           O   tau(  23) = (  0.0204683  0.4279331  0.0467309  )
        24           O   tau(  24) = (  0.5720669  0.5925351  0.0467309  )
        25           O   tau(  25) = (  0.4074478  0.4279246  0.5467499  )
        26           O   tau(  26) = (  0.5720754  0.9795232  0.5467499  )
        27           O   tau(  27) = (  0.0204768  0.5925522  0.5467499  )
        28           O   tau(  28) = (  0.0676775  0.3111292  0.3820271  )
        29           O   tau(  29) = (  0.6888708  0.7565474  0.3820271  )
        30           O   tau(  30) = (  0.2434526  0.9323225  0.3820271  )

     number of k points=     2  Gaussian smearing, width (Ry)=  0.0100
                       cart. coord. in units 2pi/alat
        k(    1) = (   0.0000000   0.0000000   0.0000000), wk =   0.2500000
        k(    2) = (   0.0000000  -0.5773503   0.0000000), wk =   0.7500000

                       cryst. coord.
        k(    1) = (   0.0000000   0.0000000   0.0000000), wk =   0.2500000
        k(    2) = (   0.0000000  -0.5000000   0.0000000), wk =   0.7500000

     Check: negative core charge=   -0.000023
     Generating pointlists ...
     new r_m :   0.1458 (alat units)  1.5374 (a.u.) for type    1
     new r_m :   0.1687 (alat units)  1.7788 (a.u.) for type    2
     new r_m :   0.1458 (alat units)  1.5374 (a.u.) for type    3
     new r_m :   0.1458 (alat units)  1.5374 (a.u.) for type    4

     Initial potential from superposition of free atoms

     starting charge  281.99969, renormalised to  294.00000

     negative rho (up, down):  1.346E-01 1.346E-01
     Starting wfcs are  204 randomized atomic wfcs

     Self-consistent Calculation

     iteration #  1     ecut=    40.00 Ry     beta= 0.20
     CG style diagonalization
     ethr =  1.00E-02,  avg # of iterations =  2.6

     negative rho (up, down):  1.302E-01 1.302E-01

     total energy              =   -3189.33374795 Ry
     estimated scf accuracy    <      22.80559447 Ry

     total magnetization       =    -0.00 Bohr mag/cell
     absolute magnetization    =    30.54 Bohr mag/cell

[...]

     iteration #  6     ecut=    40.00 Ry     beta= 0.20
     CG style diagonalization
     c_bands:  3 eigenvalues not converged
     c_bands:  2 eigenvalues not converged
     ethr =  5.76E-05,  avg # of iterations =  3.9

[...]

     iteration # 10     ecut=    40.00 Ry     beta= 0.20
     CG style diagonalization
     ethr =  1.57E-05,  avg # of iterations =  3.0

[...]

     total energy              =   -3195.09012595 Ry
     estimated scf accuracy    <       0.00153490 Ry

[...]

     iteration # 13     ecut=    40.00 Ry     beta= 0.20
     CG style diagonalization
     c_bands:  1 eigenvalues not converged
     c_bands:  1 eigenvalues not converged
     ethr =  5.22E-07,  avg # of iterations =  3.1

     negative rho (up, down):  1.259E-01 1.259E-01

     Magnetic moment per site:
     atom:    1    charge:   12.9909    magn:   -3.7188    constr:    0.0000
     atom:    2    charge:   13.0010    magn:   -3.6020    constr:    0.0000
     atom:    3    charge:   13.0161    magn:   -3.5929    constr:    0.0000
     atom:    4    charge:   13.0161    magn:    3.5927    constr:    0.0000
     atom:    5    charge:   12.9910    magn:    3.7186    constr:    0.0000
     atom:    6    charge:   13.0015    magn:    3.6017    constr:    0.0000
     atom:    7    charge:   10.4946    magn:   -0.0156    constr:    0.0000
     atom:    8    charge:   10.4911    magn:   -0.0123    constr:    0.0000
     atom:    9    charge:   10.4911    magn:    0.0123    constr:    0.0000
     atom:   10    charge:   10.4942    magn:   -0.0042    constr:    0.0000
     atom:   11    charge:   10.4941    magn:    0.0042    constr:    0.0000
     atom:   12    charge:   10.4946    magn:    0.0157    constr:    0.0000
     atom:   13    charge:    5.3961    magn:   -0.2075    constr:    0.0000
     atom:   14    charge:    5.3961    magn:   -0.2075    constr:    0.0000
     atom:   15    charge:    5.3961    magn:   -0.2075    constr:    0.0000
     atom:   16    charge:    5.3943    magn:   -0.2192    constr:    0.0000
     atom:   17    charge:    5.3943    magn:   -0.2192    constr:    0.0000
     atom:   18    charge:    5.3943    magn:   -0.2192    constr:    0.0000
     atom:   19    charge:    5.3935    magn:    0.2193    constr:    0.0000
     atom:   20    charge:    5.3935    magn:    0.2193    constr:    0.0000
     atom:   21    charge:    5.3935    magn:    0.2193    constr:    0.0000
     atom:   22    charge:    5.3859    magn:    0.0655    constr:    0.0000
     atom:   23    charge:    5.3859    magn:    0.0655    constr:    0.0000
     atom:   24    charge:    5.3859    magn:    0.0655    constr:    0.0000
     atom:   25    charge:    5.3860    magn:   -0.0657    constr:    0.0000
     atom:   26    charge:    5.3860    magn:   -0.0657    constr:    0.0000
     atom:   27    charge:    5.3860    magn:   -0.0657    constr:    0.0000
     atom:   28    charge:    5.3954    magn:    0.2077    constr:    0.0000
     atom:   29    charge:    5.3954    magn:    0.2077    constr:    0.0000
     atom:   30    charge:    5.3954    magn:    0.2077    constr:    0.0000

     End of self-consistent calculation

 ------ SPIN UP ------------

          k = 0.0000 0.0000 0.0000 ( 10901 PWs)   bands (ev):

   -79.2258 -79.0256 -78.9422 -74.2864 -74.2174 -74.1550 -45.2414 -45.1879
   -45.1878 -45.0139 -45.0139 -45.0104 -44.9969 -44.8896 -44.8896 -40.4345
   -40.3852 -40.3852 -40.3565 -40.3211 -40.3211 -40.3146 -40.2552 -40.2552
   -11.2456 -11.2456 -11.2124 -11.2124 -11.1893 -11.1893 -11.1583 -11.1492
   -11.1374 -11.1373 -11.1323 -11.1323 -11.1249 -11.1249 -11.0995 -11.0865
   -11.0777 -11.0777 -11.0694 -11.0694 -11.0659 -11.0659 -11.0561 -11.0544
   -11.0544 -11.0456 -11.0275 -11.0275 -11.0161 -11.0161  -7.8857  -7.5061
    -7.4179  -6.6436  -6.5912  -6.1796  -6.1795  -6.0683  -6.0549  -6.0549
    -5.9629  -5.9629  -5.8625  -5.8624  -5.7201  -5.7201  -5.5503  -5.5503
     0.8349   1.0756   1.1549   1.9318   2.0675   2.8231   4.9576   4.9576
     5.0482   5.4592   5.4592   5.5333   5.5682   5.5682   5.7179   5.7717
     5.7717   5.9614   6.0346   6.0346   6.2299   6.2299   6.2715   6.4273
     6.4273   6.4274   6.5199   6.7420   6.7420   7.0570   7.0570   7.1863
     7.3433   7.6274   7.6274   7.7576   7.8752   7.8753   7.9947   7.9947
     8.1784   8.3401   8.3562   8.3563   8.5315   8.5332   8.5333   8.6612
     8.6864   8.6864   8.8268   8.8269   8.9764   8.9765   9.3296   9.3297
     9.3552   9.3708   9.3708   9.4404   9.4404   9.7819   9.7820  10.1136
    10.2563  10.2563  10.2692  10.4429  10.5445  10.6783  10.7446  10.9711
    10.9711  11.6266  11.6266  12.1302  12.1302  12.3387  12.3487  12.3487
    12.4001  12.4544  12.4919  12.4919  13.3185  13.3185  13.9575  13.9575
    14.5000  14.5000  15.0747  15.1960  15.2964  15.3463  16.3941  16.3941
    16.5209  16.5209  16.5605  16.5605  16.8619  16.9036  17.1090  17.1090
    17.1895  17.1895  17.5986  17.5986  18.2926  19.5800  19.7958  19.9706
    20.6937  20.6937  20.9543  21.0379  21.6886  21.6887  21.7981  21.7982
    22.1233  22.1233  22.8323  22.9880  23.0347  23.0347  23.1879  23.6833

     occupation numbers
     1.0000   1.0000   1.0000   1.0000   1.0000   1.0000   1.0000   1.0000
     1.0000   1.0000   1.0000   1.0000   1.0000   1.0000   1.0000   1.0000
     1.0000   1.0000   1.0000   1.0000   1.0000   1.0000   1.0000   1.0000
     1.0000   1.0000   1.0000   1.0000   1.0000   1.0000   1.0000   1.0000
     1.0000   1.0000   1.0000   1.0000   1.0000   1.0000   1.0000   1.0000
     1.0000   1.0000   1.0000   1.0000   1.0000   1.0000   1.0000   1.0000
     1.0000   1.0000   1.0000   1.0000   1.0000   1.0000   1.0000   1.0000
     1.0000   1.0000   1.0000   1.0000   1.0000   1.0000   1.0000   1.0000
     1.0000   1.0000   1.0000   1.0000   1.0000   1.0000   1.0000   1.0000
     1.0000   1.0000   1.0000   1.0000   1.0000   1.0000   1.0000   1.0000
     1.0000   1.0000   1.0000   1.0000   1.0000   1.0000   1.0000   1.0000
     1.0000   1.0000   1.0000   1.0000   1.0000   1.0000   1.0000   1.0000
     1.0000   1.0000   1.0000   1.0000   1.0000   1.0000   1.0000   1.0000
     1.0000   1.0000   1.0000   1.0000   1.0000   1.0000   1.0000   1.0000
     1.0000   1.0000   1.0000   1.0000   1.0000   1.0000   1.0000   1.0000
     1.0000   1.0000   1.0000   1.0000   1.0000   1.0000   1.0000   1.0000
     1.0000   1.0000   1.0000   1.0000   1.0000   1.0000   1.0000   1.0000
     1.0000   1.0000   1.0000   1.0000   1.0000   1.0000   1.0000   1.0000
     1.0000   0.9896   0.9896   0.0017   0.0017   0.0000   0.0000   0.0000
     0.0000   0.0000   0.0000   0.0000   0.0000   0.0000   0.0000   0.0000
     0.0000   0.0000   0.0000   0.0000   0.0000   0.0000   0.0000   0.0000
     0.0000   0.0000   0.0000   0.0000   0.0000   0.0000   0.0000   0.0000
     0.0000   0.0000   0.0000   0.0000   0.0000   0.0000   0.0000   0.0000
     0.0000   0.0000   0.0000   0.0000   0.0000   0.0000   0.0000   0.0000
     0.0000   0.0000   0.0000   0.0000   0.0000   0.0000   0.0000   0.0000

[...]

 ------ SPIN DOWN ----------

[...]

          k = 0.0000-0.5774 0.0000 ( 10792 PWs)   bands (ev):

   -79.2275 -79.0242 -78.9442 -74.2834 -74.2184 -74.1529 -45.2429 -45.1899
   -45.1899 -45.0126 -45.0126 -45.0122 -44.9956 -44.8917 -44.8917 -40.4315
   -40.3822 -40.3822 -40.3573 -40.3219 -40.3219 -40.3125 -40.2531 -40.2531
   -11.2425 -11.2120 -11.1981 -11.1891 -11.1828 -11.1764 -11.1661 -11.1535
   -11.1382 -11.1336 -11.1270 -11.1233 -11.1136 -11.1115 -11.1058 -11.0955
   -11.0866 -11.0840 -11.0769 -11.0723 -11.0704 -11.0690 -11.0655 -11.0571
   -11.0545 -11.0450 -11.0409 -11.0329 -11.0294 -11.0165  -7.2327  -7.1909
    -7.0221  -6.8553  -6.8157  -6.4416  -6.4191  -6.3156  -6.1772  -6.0970
    -6.0639  -6.0365  -5.9693  -5.8969  -5.7902  -5.7460  -5.6546  -5.5659
     1.0187   1.2431   1.2645   1.5608   1.6235   1.8378   5.0570   5.3387
     5.3851   5.5039   5.6889   5.7017   5.8084   5.8415   5.8692   6.0335
     6.0656   6.1207   6.2281   6.2965   6.4981   6.5849   6.6539   6.7421
     6.7771   6.8305   6.9996   7.0642   7.1699   7.2297   7.2738   7.4043
     7.4743   7.5271   7.6492   7.7346   7.7857   7.8150   7.9102   7.9521
     8.0762   8.1637   8.2072   8.2885   8.3541   8.3848   8.4896   8.5237
     8.5766   8.6465   8.7208   8.7834   8.9533   9.0851   9.1031   9.1449
     9.2012   9.2419   9.2767   9.3886   9.4300   9.5114   9.5694   9.8768
    10.0692  10.1974  10.3790  10.4090  10.4630  10.6253  10.9011  10.9447
    11.0527  11.0883  11.5584  12.0904  12.1609  12.2778  12.3367  12.3783
    12.4433  12.4938  12.6743  12.7560  13.3637  13.4458  13.6232  13.8028
    13.8857  14.3893  14.5983  15.1376  15.1810  15.3719  15.4514  15.4829
    15.5294  15.5718  15.6515  16.6478  16.6950  16.7757  16.8443  16.9347
    16.9961  17.0650  17.1271  17.2051  20.0221  20.1951  20.4707  20.9846
    21.1197  21.2078  21.6950  21.8414  21.9749  22.2858  22.3242  22.3445
    22.4658  22.5117  22.8305  22.8895  23.1112  23.1792  23.2364  23.2916

     occupation numbers
     1.0000   1.0000   1.0000   1.0000   1.0000   1.0000   1.0000   1.0000
     1.0000   1.0000   1.0000   1.0000   1.0000   1.0000   1.0000   1.0000
     1.0000   1.0000   1.0000   1.0000   1.0000   1.0000   1.0000   1.0000
     1.0000   1.0000   1.0000   1.0000   1.0000   1.0000   1.0000   1.0000
     1.0000   1.0000   1.0000   1.0000   1.0000   1.0000   1.0000   1.0000
     1.0000   1.0000   1.0000   1.0000   1.0000   1.0000   1.0000   1.0000
     1.0000   1.0000   1.0000   1.0000   1.0000   1.0000   1.0000   1.0000
     1.0000   1.0000   1.0000   1.0000   1.0000   1.0000   1.0000   1.0000
     1.0000   1.0000   1.0000   1.0000   1.0000   1.0000   1.0000   1.0000
     1.0000   1.0000   1.0000   1.0000   1.0000   1.0000   1.0000   1.0000
     1.0000   1.0000   1.0000   1.0000   1.0000   1.0000   1.0000   1.0000
     1.0000   1.0000   1.0000   1.0000   1.0000   1.0000   1.0000   1.0000
     1.0000   1.0000   1.0000   1.0000   1.0000   1.0000   1.0000   1.0000
     1.0000   1.0000   1.0000   1.0000   1.0000   1.0000   1.0000   1.0000
     1.0000   1.0000   1.0000   1.0000   1.0000   1.0000   1.0000   1.0000
     1.0000   1.0000   1.0000   1.0000   1.0000   1.0000   1.0000   1.0000
     1.0000   1.0000   1.0000   1.0000   1.0000   1.0000   1.0000   1.0000
     1.0000   1.0000   1.0000   1.0000   1.0000   1.0000   1.0000   1.0000
     1.0000   1.0000   0.9987   0.0061   0.0006   0.0000   0.0000   0.0000
     0.0000   0.0000   0.0000   0.0000   0.0000   0.0000   0.0000   0.0000
     0.0000   0.0000   0.0000   0.0000   0.0000   0.0000   0.0000   0.0000
     0.0000   0.0000   0.0000   0.0000   0.0000   0.0000   0.0000   0.0000
     0.0000   0.0000   0.0000   0.0000   0.0000   0.0000   0.0000   0.0000
     0.0000   0.0000   0.0000   0.0000   0.0000   0.0000   0.0000   0.0000
     0.0000   0.0000   0.0000   0.0000   0.0000   0.0000   0.0000   0.0000

     the Fermi energy is    11.8490 ev

!    total energy              =   -3195.09042044 Ry
     estimated scf accuracy    <       0.00029872 Ry
     smearing contrib. (-TS)   =      -0.00048456 Ry
     internal energy E=F+TS    =   -3195.08993588 Ry

     The total energy is F=E-TS. E is the sum of the following terms:
     one-electron contribution =   -1315.73180793 Ry
     hartree contribution      =     843.51592408 Ry
     xc contribution           =    -695.22492279 Ry
     ewald contribution        =   -2027.64912925 Ry

     total magnetization       =     0.00 Bohr mag/cell
     absolute magnetization    =    27.56 Bohr mag/cell

     convergence has been achieved in  13 iterations

     Writing output data file /home/aldair1809/Documentos/QE/4BFO/UHUBBARD/temp/ecut_ecutwfc_40.in/bifeo3-scf.save/

     General routines

     Parallel routines

   This run was terminated on:  13:18: 5  29Sep2024

   JOB DONE.