     Program PWSCF v.6.7MaX starts on 29Sep2024 at 12:31:38

     R & G space division:  proc/nbgrp/npool/nimage =       4
     Waiting for input...
     Reading input from standard input

     Current dimensions of program PWSCF are:
     Max number of different atomic species (ntypx) = 10
     Max number of k-points (npk) =  40000
     Max angular momentum in pseudopotentials (lmaxx) =  3
     Message from routine iosys:
     wrong startingpot: use default (1)

     Message from routine setup:
     using ibrav=0 with symmetry is DISCOURAGED, use correct ibrav instead

     bravais-lattice index     =            0
     lattice parameter (alat)  =      10.5468  a.u.
     unit-cell volume          =    2535.5110 (a.u.)^3
     number of atoms/cell      =           30
     number of atomic types    =            4
     number of electrons       =       294.00
     number of Kohn-Sham states=          200
     kinetic-energy cutoff     =      30.0000  Ry
     charge density cutoff     =     120.0000  Ry
     scf convergence threshold =      1.0E-03
     mixing beta               =       0.2000
     number of iterations used =            8  plain     mixing
     Exchange-correlation=  SLA  PW   PBX  PBC
                           (   1   4   3   4   0   0   0)

     celldm(1)=  10.546849  celldm(2)=   0.000000  celldm(3)=   0.000000
     celldm(4)=   0.000000  celldm(5)=   0.000000  celldm(6)=   0.000000

     crystal axes: (cart. coord. in units of alat)
               a(1) = (   1.000000  -0.000000  -0.000000 )
               a(2) = (  -0.500000   0.866025  -0.000000 )
               a(3) = (   0.000000  -0.000000   2.495552 )

     reciprocal axes: (cart. coord. in units 2 pi/alat)
               b(1) = (  1.000000  0.577350  0.000000 )
               b(2) = (  0.000000  1.154701  0.000000 )
               b(3) = (  0.000000  0.000000  0.400713 )

     PseudoPot. # 1 for O  read from file:
     /home/aldair1809/Programas/QE/q-e-qe-7.3/pseudo/o_pbe_v1.2.uspp.F.UPF
     MD5 check sum: 734c27235a0248c51dbae37a1fbe46ec
     Pseudo is Ultrasoft + core correction, Zval =  6.0
     Generated by new atomic code, or converted to UPF format
     Using radial grid of  737 points,  5 beta functions with:
                l(1) =   0
                l(2) =   0
                l(3) =   1
                l(4) =   1
                l(5) =   2
     Q(r) pseudized with  8 coefficients,  rinner =    0.900   0.900   0.900
                                                       0.900   0.900

     PseudoPot. # 2 for Bi read from file:
     /home/aldair1809/Programas/QE/q-e-qe-7.3/pseudo/bi_pbe_v1.uspp.F.UPF
     MD5 check sum: cceb9f28ec65b6d7ff33140f5b0b1758
     Pseudo is Ultrasoft + core correction, Zval = 15.0
     Generated by new atomic code, or converted to UPF format
     Using radial grid of  899 points,  6 beta functions with:
                l(1) =   0
                l(2) =   0
                l(3) =   1
                l(4) =   1
                l(5) =   2
                l(6) =   2
     Q(r) pseudized with  6 coefficients,  rinner =    1.000   1.000   1.000
                                                       1.000   1.000

     PseudoPot. # 3 for Fe read from file:
     /home/aldair1809/Programas/QE/q-e-qe-7.3/pseudo/fe_pbe_v1.5.uspp.F.UPF
     MD5 check sum: a130daea23fe5165f5d574ae7f82ed95
     Pseudo is Ultrasoft + core correction, Zval = 16.0
     Generated by new atomic code, or converted to UPF format
     Using radial grid of  861 points,  6 beta functions with:
                l(1) =   0
                l(2) =   0
                l(3) =   1
                l(4) =   1
                l(5) =   2
                l(6) =   2
     Q(r) pseudized with  8 coefficients,  rinner =    1.000   1.000   1.000
                                                       1.000   1.000

     PseudoPot. # 4 for Fe read from file:
     /home/aldair1809/Programas/QE/q-e-qe-7.3/pseudo/fe_pbe_v1.5.uspp.F.UPF
     MD5 check sum: a130daea23fe5165f5d574ae7f82ed95
     Pseudo is Ultrasoft + core correction, Zval = 16.0
     Generated by new atomic code, or converted to UPF format
     Using radial grid of  861 points,  6 beta functions with:
                l(1) =   0
                l(2) =   0
                l(3) =   1
                l(4) =   1
                l(5) =   2
                l(6) =   2
     Q(r) pseudized with  8 coefficients,  rinner =    1.000   1.000   1.000
                                                       1.000   1.000

     atomic species   valence    mass     pseudopotential
        O              6.00    15.99940     O ( 1.00)
        Bi            15.00   208.98040     Bi( 1.00)
        Fe1           16.00    55.84500     Fe( 1.00)
        Fe2           16.00    55.84500     Fe( 1.00)

     Starting magnetic structure
     atomic species   magnetization
        O            0.000
        Bi           0.000
        Fe1         -0.800
        Fe2          0.800

      3 Sym. Ops. (no inversion) found

                                    s                        frac. trans.

      isym =  1     identity

 cryst.   s( 1) = (     1          0          0      )
                  (     0          1          0      )
                  (     0          0          1      )

 cart.    s( 1) = (  1.0000000 -0.0000000  0.0000000 )
                  (  0.0000000  1.0000000  0.0000000 )
                  (  0.0000000  0.0000000  1.0000000 )

      isym =  2     120 deg rotation - cryst. axis [0,0,1]

[...]

      isym =  3     120 deg rotation - cryst. axis [0,0,-1]

 cryst.   s( 3) = (    -1         -1          0      )
                  (     1          0          0      )
                  (     0          0          1      )

 cart.    s( 3) = ( -0.5000000  0.8660254  0.0000000 )
                  ( -0.8660254 -0.5000000  0.0000000 )
                  (  0.0000000  0.0000000  1.0000000 )

   Cartesian axes

     site n.     atom                  positions (alat units)
         1           Fe1 tau(   1) = (   0.0000000   0.0000000   1.9384582  )
         2           Fe1 tau(   2) = (  -0.0000005   0.5773506   2.3615556  )
         3           Fe1 tau(   3) = (   0.5000005   0.2886748   1.5200787  )
         4           Fe2 tau(   4) = (   0.5000005   0.2886748   0.2722626  )
         5           Fe2 tau(   5) = (   0.0000000   0.0000000   0.6907071  )
         6           Fe2 tau(   6) = (  -0.0000005   0.5773506   1.1137452  )
         7           Bi  tau(   7) = (   0.5000005   0.2886748   2.0843143  )
         8           Bi  tau(   8) = (  -0.0000005   0.5773506   1.6713980  )
         9           Bi  tau(   9) = (  -0.0000005   0.5773506   0.4235448  )
        10           Bi  tau(  10) = (   0.0000000   0.0000000   0.0002821  )
        11           Bi  tau(  11) = (   0.0000000   0.0000000   1.2481025  )
        12           Bi  tau(  12) = (   0.5000005   0.2886748   0.8364865  )
        13           O   tau(  13) = (  -0.3105904   0.6551932   2.2011299  )
        14           O   tau(  14) = (   0.0878817   0.2694488   2.2011299  )
        15           O   tau(  15) = (   0.2227102   0.8074080   2.2011299  )
        16           O   tau(  16) = (   0.4087504   0.5589755   1.7846473  )
        17           O   tau(  17) = (   0.3115373   0.0745013   1.7846473  )
        18           O   tau(  18) = (   0.7797108   0.2325494   1.7846473  )
        19           O   tau(  19) = (   0.6884743   0.0745026   0.5368244  )
        20           O   tau(  20) = (   0.5912412   0.5589858   0.5368244  )
        21           O   tau(  21) = (   0.2202830   0.2325379   0.5368244  )
        22           O   tau(  22) = (  -0.0823010   0.8482993   0.1166193  )
        23           O   tau(  23) = (  -0.1934983   0.3706010   0.1166193  )
        24           O   tau(  24) = (   0.2757993   0.5131505   0.1166193  )
        25           O   tau(  25) = (   0.1934855   0.3705936   1.3644430  )
        26           O   tau(  26) = (   0.0823138   0.8482919   1.3644430  )
        27           O   tau(  27) = (  -0.2757993   0.5131653   1.3644430  )
        28           O   tau(  28) = (  -0.0878870   0.2694458   0.9533686  )
        29           O   tau(  29) = (   0.3105971   0.6551893   0.9533686  )
        30           O   tau(  30) = (  -0.2227086   0.8074149   0.9533686  )

   Crystallographic axes

     site n.     atom                  positions (cryst. coord.)
         1           Fe1 tau(   1) = (  0.0000000  0.0000000  0.7767652  )
         2           Fe1 tau(   2) = (  0.3333330  0.6666670  0.9463058  )
         3           Fe1 tau(   3) = (  0.6666670  0.3333330  0.6091152  )
         4           Fe2 tau(   4) = (  0.6666670  0.3333330  0.1090991  )
         5           Fe2 tau(   5) = (  0.0000000  0.0000000  0.2767753  )
         6           Fe2 tau(   6) = (  0.3333330  0.6666670  0.4462921  )
         7           Bi  tau(   7) = (  0.6666670  0.3333330  0.8352117  )
         8           Bi  tau(   8) = (  0.3333330  0.6666670  0.6697508  )
         9           Bi  tau(   9) = (  0.3333330  0.6666670  0.1697199  )
        10           Bi  tau(  10) = (  0.0000000  0.0000000  0.0001130  )
        11           Bi  tau(  11) = (  0.0000000  0.0000000  0.5001308  )
        12           Bi  tau(  12) = (  0.6666670  0.3333330  0.3351910  )
        13           O   tau(  13) = (  0.0676856  0.7565520  0.8820212  )
        14           O   tau(  14) = (  0.2434480  0.3111326  0.8820212  )
        15           O   tau(  15) = (  0.6888674  0.9323144  0.8820212  )
        16           O   tau(  16) = (  0.7314750  0.6454493  0.7151312  )
        17           O   tau(  17) = (  0.3545507  0.0860267  0.7151312  )
        18           O   tau(  18) = (  0.9139733  0.2685250  0.7151312  )
        19           O   tau(  19) = (  0.7314884  0.0860282  0.2151125  )
        20           O   tau(  20) = (  0.9139718  0.6454612  0.2151125  )
        21           O   tau(  21) = (  0.3545388  0.2685116  0.2151125  )
        22           O   tau(  22) = (  0.4074649  0.9795317  0.0467309  )
        23           O   tau(  23) = (  0.0204683  0.4279331  0.0467309  )
        24           O   tau(  24) = (  0.5720669  0.5925351  0.0467309  )
        25           O   tau(  25) = (  0.4074478  0.4279246  0.5467499  )
        26           O   tau(  26) = (  0.5720754  0.9795232  0.5467499  )
        27           O   tau(  27) = (  0.0204768  0.5925522  0.5467499  )
        28           O   tau(  28) = (  0.0676775  0.3111292  0.3820271  )
        29           O   tau(  29) = (  0.6888708  0.7565474  0.3820271  )
        30           O   tau(  30) = (  0.2434526  0.9323225  0.3820271  )

     number of k points=     2  Gaussian smearing, width (Ry)=  0.0100
                       cart. coord. in units 2pi/alat
        k(    1) = (   0.0000000   0.0000000   0.0000000), wk =   0.2500000
        k(    2) = (   0.0000000  -0.5773503   0.0000000), wk =   0.7500000

                       cryst. coord.
        k(    1) = (   0.0000000   0.0000000   0.0000000), wk =   0.2500000
        k(    2) = (   0.0000000  -0.5000000   0.0000000), wk =   0.7500000

     Check: negative core charge=   -0.000262
     Generating pointlists ...
     new r_m :   0.1458 (alat units)  1.5374 (a.u.) for type    1
     new r_m :   0.1687 (alat units)  1.7788 (a.u.) for type    2
     new r_m :   0.1458 (alat units)  1.5374 (a.u.) for type    3
     new r_m :   0.1458 (alat units)  1.5374 (a.u.) for type    4

     Initial potential from superposition of free atoms

     starting charge  281.99969, renormalised to  294.00000

     negative rho (up, down):  1.313E-01 1.313E-01
     Starting wfcs are  204 randomized atomic wfcs

     Self-consistent Calculation

     iteration #  1     ecut=    30.00 Ry     beta= 0.20
     CG style diagonalization
     ethr =  1.00E-02,  avg # of iterations =  2.6

     negative rho (up, down):  1.270E-01 1.270E-01

     total energy              =   -3189.10315576 Ry
     estimated scf accuracy    <      22.77561977 Ry

     total magnetization       =    -0.00 Bohr mag/cell
     absolute magnetization    =    30.58 Bohr mag/cell

[...]

     iteration #  6     ecut=    30.00 Ry     beta= 0.20
     CG style diagonalization
     c_bands:  1 eigenvalues not converged
     ethr =  9.97E-05,  avg # of iterations =  3.9

[...]

     iteration # 10     ecut=    30.00 Ry     beta= 0.20
     CG style diagonalization
     ethr =  2.33E-05,  avg # of iterations =  3.0

[...]

     total energy              =   -3194.82684602 Ry
     estimated scf accuracy    <       0.00118474 Ry

[...]

     iteration # 13     ecut=    30.00 Ry     beta= 0.20
     CG style diagonalization
     c_bands:  2 eigenvalues not converged
     c_bands:  2 eigenvalues not converged
     ethr =  4.03E-07,  avg # of iterations =  3.1

     negative rho (up, down):  1.227E-01 1.227E-01

     Magnetic moment per site:
     atom:    1    charge:   12.9987    magn:   -3.7193    constr:    0.0000
     atom:    2    charge:   13.0097    magn:   -3.6042    constr:    0.0000
     atom:    3    charge:   13.0267    magn:   -3.5926    constr:    0.0000
     atom:    4    charge:   13.0242    magn:    3.5938    constr:    0.0000
     atom:    5    charge:   12.9969    magn:    3.7203    constr:    0.0000
     atom:    6    charge:   13.0069    magn:    3.6055    constr:    0.0000
     atom:    7    charge:   10.4958    magn:   -0.0161    constr:    0.0000
     atom:    8    charge:   10.4944    magn:   -0.0127    constr:    0.0000
     atom:    9    charge:   10.4944    magn:    0.0126    constr:    0.0000
     atom:   10    charge:   10.4896    magn:   -0.0043    constr:    0.0000
     atom:   11    charge:   10.4896    magn:    0.0043    constr:    0.0000
     atom:   12    charge:   10.4958    magn:    0.0161    constr:    0.0000
     atom:   13    charge:    5.3949    magn:   -0.2061    constr:    0.0000
     atom:   14    charge:    5.3949    magn:   -0.2061    constr:    0.0000
     atom:   15    charge:    5.3949    magn:   -0.2061    constr:    0.0000
     atom:   16    charge:    5.3932    magn:   -0.2180    constr:    0.0000
     atom:   17    charge:    5.3932    magn:   -0.2180    constr:    0.0000
     atom:   18    charge:    5.3932    magn:   -0.2180    constr:    0.0000
     atom:   19    charge:    5.3932    magn:    0.2177    constr:    0.0000
     atom:   20    charge:    5.3932    magn:    0.2177    constr:    0.0000
     atom:   21    charge:    5.3932    magn:    0.2177    constr:    0.0000
     atom:   22    charge:    5.3844    magn:    0.0656    constr:    0.0000
     atom:   23    charge:    5.3844    magn:    0.0656    constr:    0.0000
     atom:   24    charge:    5.3844    magn:    0.0656    constr:    0.0000
     atom:   25    charge:    5.3842    magn:   -0.0662    constr:    0.0000
     atom:   26    charge:    5.3842    magn:   -0.0662    constr:    0.0000
     atom:   27    charge:    5.3842    magn:   -0.0662    constr:    0.0000
     atom:   28    charge:    5.3949    magn:    0.2059    constr:    0.0000
     atom:   29    charge:    5.3949    magn:    0.2059    constr:    0.0000
     atom:   30    charge:    5.3949    magn:    0.2059    constr:    0.0000

     End of self-consistent calculation

 ------ SPIN UP ------------

          k = 0.0000 0.0000 0.0000 (  7023 PWs)   bands (ev):

   -79.2764 -79.0818 -79.0094 -74.3405 -74.2673 -74.2095 -45.2594 -45.2263
   -45.2263 -45.0545 -45.0534 -45.0534 -45.0299 -44.9396 -44.9396 -40.4685
   -40.4242 -40.4242 -40.3884 -40.3549 -40.3549 -40.3503 -40.2940 -40.2940
   -11.2492 -11.2492 -11.2157 -11.2157 -11.1918 -11.1918 -11.1640 -11.1521
   -11.1411 -11.1411 -11.1373 -11.1373 -11.1280 -11.1280 -11.1023 -11.0899
   -11.0817 -11.0817 -11.0723 -11.0723 -11.0702 -11.0702 -11.0582 -11.0563
   -11.0563 -11.0467 -11.0309 -11.0309 -11.0183 -11.0183  -7.8957  -7.5184
    -7.4301  -6.6571  -6.6050  -6.1927  -6.1926  -6.0851  -6.0690  -6.0689
    -5.9790  -5.9790  -5.8761  -5.8760  -5.7384  -5.7384  -5.5690  -5.5690
     0.8358   1.0768   1.1547   1.9298   2.0666   2.8199   4.9599   4.9599
     5.0570   5.4597   5.4597   5.5413   5.5689   5.5689   5.7240   5.7683
     5.7683   5.9686   6.0311   6.0311   6.2283   6.2283   6.2764   6.4275
     6.4276   6.4296   6.5219   6.7408   6.7408   7.0516   7.0516   7.1887
     7.3495   7.6236   7.6236   7.7591   7.8715   7.8716   7.9903   7.9903
     8.1781   8.3464   8.3564   8.3564   8.5294   8.5295   8.5341   8.6624
     8.6859   8.6860   8.8255   8.8256   8.9734   8.9735   9.3323   9.3324
     9.3560   9.3737   9.3738   9.4432   9.4432   9.7835   9.7835  10.1146
    10.2446  10.2446  10.2736  10.4435  10.5472  10.6867  10.7508  10.9604
    10.9605  11.6224  11.6225  12.1213  12.1213  12.3215  12.3447  12.3447
    12.3977  12.4376  12.4873  12.4873  13.2961  13.2961  13.9407  13.9407
    14.4901  14.4901  15.0750  15.1973  15.2975  15.3481  16.3947  16.3947
    16.5223  16.5223  16.5619  16.5620  16.8650  16.9063  17.1104  17.1104
    17.1923  17.1924  17.6019  17.6019  18.2984  19.5870  19.8030  19.9785
    20.6980  20.6980  20.9623  21.0453  21.6929  21.6929  21.8039  21.8040
    22.1270  22.1271  22.8408  23.0041  23.0405  23.0417  23.1933  23.2753

     occupation numbers
     1.0000   1.0000   1.0000   1.0000   1.0000   1.0000   1.0000   1.0000
     1.0000   1.0000   1.0000   1.0000   1.0000   1.0000   1.0000   1.0000
     1.0000   1.0000   1.0000   1.0000   1.0000   1.0000   1.0000   1.0000
     1.0000   1.0000   1.0000   1.0000   1.0000   1.0000   1.0000   1.0000
     1.0000   1.0000   1.0000   1.0000   1.0000   1.0000   1.0000   1.0000
     1.0000   1.0000   1.0000   1.0000   1.0000   1.0000   1.0000   1.0000
     1.0000   1.0000   1.0000   1.0000   1.0000   1.0000   1.0000   1.0000
     1.0000   1.0000   1.0000   1.0000   1.0000   1.0000   1.0000   1.0000
     1.0000   1.0000   1.0000   1.0000   1.0000   1.0000   1.0000   1.0000
     1.0000   1.0000   1.0000   1.0000   1.0000   1.0000   1.0000   1.0000
     1.0000   1.0000   1.0000   1.0000   1.0000   1.0000   1.0000   1.0000
     1.0000   1.0000   1.0000   1.0000   1.0000   1.0000   1.0000   1.0000
     1.0000   1.0000   1.0000   1.0000   1.0000   1.0000   1.0000   1.0000
     1.0000   1.0000   1.0000   1.0000   1.0000   1.0000   1.0000   1.0000
     1.0000   1.0000   1.0000   1.0000   1.0000   1.0000   1.0000   1.0000
     1.0000   1.0000   1.0000   1.0000   1.0000   1.0000   1.0000   1.0000
     1.0000   1.0000   1.0000   1.0000   1.0000   1.0000   1.0000   1.0000
     1.0000   1.0000   1.0000   1.0000   1.0000   1.0000   1.0000   1.0000
     1.0000   0.9879   0.9878   0.0017   0.0017   0.0000   0.0000   0.0000
     0.0000   0.0000   0.0000   0.0000   0.0000   0.0000   0.0000   0.0000
     0.0000   0.0000   0.0000   0.0000   0.0000   0.0000   0.0000   0.0000
     0.0000   0.0000   0.0000   0.0000   0.0000   0.0000   0.0000   0.0000
     0.0000   0.0000   0.0000   0.0000   0.0000   0.0000   0.0000   0.0000
     0.0000   0.0000   0.0000   0.0000   0.0000   0.0000   0.0000   0.0000
     0.0000   0.0000   0.0000   0.0000   0.0000   0.0000   0.0000   0.0000

[...]

 ------ SPIN DOWN ----------

[...]

          k = 0.0000-0.5774 0.0000 (  7050 PWs)   bands (ev):

   -79.2818 -79.0877 -79.0135 -74.3366 -74.2620 -74.2058 -45.2645 -45.2328
   -45.2328 -45.0607 -45.0606 -45.0580 -45.0353 -44.9451 -44.9450 -40.4640
   -40.4217 -40.4217 -40.3827 -40.3512 -40.3512 -40.3464 -40.2919 -40.2919
   -11.2449 -11.2161 -11.2000 -11.1923 -11.1873 -11.1794 -11.1701 -11.1571
   -11.1416 -11.1385 -11.1294 -11.1263 -11.1185 -11.1158 -11.1100 -11.1000
   -11.0898 -11.0872 -11.0809 -11.0766 -11.0744 -11.0725 -11.0692 -11.0579
   -11.0571 -11.0462 -11.0442 -11.0351 -11.0334 -11.0208  -7.2391  -7.2015
    -7.0371  -6.8679  -6.8320  -6.4563  -6.4322  -6.3253  -6.1915  -6.1126
    -6.0745  -6.0518  -5.9834  -5.9088  -5.8103  -5.7667  -5.6754  -5.5875
     1.0193   1.2420   1.2643   1.5589   1.6232   1.8349   5.0611   5.3403
     5.3838   5.5009   5.6906   5.6994   5.8135   5.8429   5.8725   6.0342
     6.0673   6.1177   6.2256   6.2932   6.5009   6.5811   6.6519   6.7405
     6.7735   6.8295   6.9987   7.0606   7.1667   7.2266   7.2749   7.4045
     7.4725   7.5202   7.6477   7.7331   7.7857   7.8137   7.9047   7.9490
     8.0716   8.1591   8.2074   8.2860   8.3509   8.3831   8.4859   8.5236
     8.5767   8.6424   8.7182   8.7788   8.9525   9.0825   9.1052   9.1444
     9.2018   9.2414   9.2745   9.3859   9.4298   9.5069   9.5706   9.8666
    10.0657  10.1972  10.3755  10.4052  10.4632  10.6212  10.8984  10.9383
    11.0464  11.0847  11.5515  12.0745  12.1494  12.2669  12.3327  12.3750
    12.4387  12.4778  12.6647  12.7496  13.3413  13.4300  13.6102  13.7847
    13.8694  14.3794  14.5973  15.1371  15.1802  15.3709  15.4519  15.4833
    15.5292  15.5706  15.6510  16.6510  16.6963  16.7769  16.8463  16.9359
    17.0004  17.0703  17.1264  17.2049  20.0349  20.2045  20.4809  20.9889
    21.1255  21.2132  21.7009  21.8492  21.9829  22.2918  22.3316  22.3507
    22.4715  22.5164  22.8376  22.8954  23.1196  23.1859  23.2435  23.2990

     occupation numbers
     1.0000   1.0000   1.0000   1.0000   1.0000   1.0000   1.0000   1.0000
     1.0000   1.0000   1.0000   1.0000   1.0000   1.0000   1.0000   1.0000
     1.0000   1.0000   1.0000   1.0000   1.0000   1.0000   1.0000   1.0000
     1.0000   1.0000   1.0000   1.0000   1.0000   1.0000   1.0000   1.0000
     1.0000   1.0000   1.0000   1.0000   1.0000   1.0000   1.0000   1.0000
     1.0000   1.0000   1.0000   1.0000   1.0000   1.0000   1.0000   1.0000
     1.0000   1.0000   1.0000   1.0000   1.0000   1.0000   1.0000   1.0000
     1.0000   1.0000   1.0000   1.0000   1.0000   1.0000   1.0000   1.0000
     1.0000   1.0000   1.0000   1.0000   1.0000   1.0000   1.0000   1.0000
     1.0000   1.0000   1.0000   1.0000   1.0000   1.0000   1.0000   1.0000
     1.0000   1.0000   1.0000   1.0000   1.0000   1.0000   1.0000   1.0000
     1.0000   1.0000   1.0000   1.0000   1.0000   1.0000   1.0000   1.0000
     1.0000   1.0000   1.0000   1.0000   1.0000   1.0000   1.0000   1.0000
     1.0000   1.0000   1.0000   1.0000   1.0000   1.0000   1.0000   1.0000
     1.0000   1.0000   1.0000   1.0000   1.0000   1.0000   1.0000   1.0000
     1.0000   1.0000   1.0000   1.0000   1.0000   1.0000   1.0000   1.0000
     1.0000   1.0000   1.0000   1.0000   1.0000   1.0000   1.0000   1.0000
     1.0000   1.0000   1.0000   1.0000   1.0000   1.0000   1.0000   1.0000
     1.0000   1.0000   0.9986   0.0072   0.0006   0.0000   0.0000   0.0000
     0.0000   0.0000   0.0000   0.0000   0.0000   0.0000   0.0000   0.0000
     0.0000   0.0000   0.0000   0.0000   0.0000   0.0000   0.0000   0.0000
     0.0000   0.0000   0.0000   0.0000   0.0000   0.0000   0.0000   0.0000
     0.0000   0.0000   0.0000   0.0000   0.0000   0.0000   0.0000   0.0000
     0.0000   0.0000   0.0000   0.0000   0.0000   0.0000   0.0000   0.0000
     0.0000   0.0000   0.0000   0.0000   0.0000   0.0000   0.0000   0.0000

     the Fermi energy is    11.8392 ev

!    total energy              =   -3194.82719187 Ry
     estimated scf accuracy    <       0.00052207 Ry
     smearing contrib. (-TS)   =      -0.00055087 Ry
     internal energy E=F+TS    =   -3194.82664100 Ry

     The total energy is F=E-TS. E is the sum of the following terms:
     one-electron contribution =   -1314.90623155 Ry
     hartree contribution      =     842.82220490 Ry
     xc contribution           =    -695.09348339 Ry
     ewald contribution        =   -2027.64913096 Ry

     total magnetization       =     0.00 Bohr mag/cell
     absolute magnetization    =    27.54 Bohr mag/cell

     convergence has been achieved in  13 iterations

     Writing output data file /home/aldair1809/Documentos/QE/4BFO/UHUBBARD/temp/ecut_ecutwfc_30.in/bifeo3-scf.save/

     General routines

     Parallel routines

   This run was terminated on:  12:46:53  29Sep2024

   JOB DONE.