     Program PWSCF v.6.7MaX starts on 29Sep2024 at 17: 9:37

     R & G space division:  proc/nbgrp/npool/nimage =       4
     Waiting for input...
     Reading input from standard input

     Current dimensions of program PWSCF are:
     Max number of different atomic species (ntypx) = 10
     Max number of k-points (npk) =  40000
     Max angular momentum in pseudopotentials (lmaxx) =  3
     Message from routine iosys:
     wrong startingpot: use default (1)

     Message from routine setup:
     using ibrav=0 with symmetry is DISCOURAGED, use correct ibrav instead

     bravais-lattice index     =            0
     lattice parameter (alat)  =      10.5468  a.u.
     unit-cell volume          =    2535.5110 (a.u.)^3
     number of atoms/cell      =           30
     number of atomic types    =            4
     number of electrons       =       294.00
     number of Kohn-Sham states=          200
     kinetic-energy cutoff     =      80.0000  Ry
     charge density cutoff     =     320.0000  Ry
     scf convergence threshold =      1.0E-03
     mixing beta               =       0.2000
     number of iterations used =            8  plain     mixing
     Exchange-correlation=  SLA  PW   PBX  PBC
                           (   1   4   3   4   0   0   0)

     celldm(1)=  10.546849  celldm(2)=   0.000000  celldm(3)=   0.000000
     celldm(4)=   0.000000  celldm(5)=   0.000000  celldm(6)=   0.000000

     crystal axes: (cart. coord. in units of alat)
               a(1) = (   1.000000  -0.000000  -0.000000 )
               a(2) = (  -0.500000   0.866025  -0.000000 )
               a(3) = (   0.000000  -0.000000   2.495552 )

     reciprocal axes: (cart. coord. in units 2 pi/alat)
               b(1) = (  1.000000  0.577350  0.000000 )
               b(2) = (  0.000000  1.154701  0.000000 )
               b(3) = (  0.000000  0.000000  0.400713 )

     PseudoPot. # 1 for O  read from file:
     /home/aldair1809/Programas/QE/q-e-qe-7.3/pseudo/o_pbe_v1.2.uspp.F.UPF
     MD5 check sum: 734c27235a0248c51dbae37a1fbe46ec
     Pseudo is Ultrasoft + core correction, Zval =  6.0
     Generated by new atomic code, or converted to UPF format
     Using radial grid of  737 points,  5 beta functions with:
                l(1) =   0
                l(2) =   0
                l(3) =   1
                l(4) =   1
                l(5) =   2
     Q(r) pseudized with  8 coefficients,  rinner =    0.900   0.900   0.900
                                                       0.900   0.900

     PseudoPot. # 2 for Bi read from file:
     /home/aldair1809/Programas/QE/q-e-qe-7.3/pseudo/bi_pbe_v1.uspp.F.UPF
     MD5 check sum: cceb9f28ec65b6d7ff33140f5b0b1758
     Pseudo is Ultrasoft + core correction, Zval = 15.0
     Generated by new atomic code, or converted to UPF format
     Using radial grid of  899 points,  6 beta functions with:
                l(1) =   0
                l(2) =   0
                l(3) =   1
                l(4) =   1
                l(5) =   2
                l(6) =   2
     Q(r) pseudized with  6 coefficients,  rinner =    1.000   1.000   1.000
                                                       1.000   1.000

     PseudoPot. # 3 for Fe read from file:
     /home/aldair1809/Programas/QE/q-e-qe-7.3/pseudo/fe_pbe_v1.5.uspp.F.UPF
     MD5 check sum: a130daea23fe5165f5d574ae7f82ed95
     Pseudo is Ultrasoft + core correction, Zval = 16.0
     Generated by new atomic code, or converted to UPF format
     Using radial grid of  861 points,  6 beta functions with:
                l(1) =   0
                l(2) =   0
                l(3) =   1
                l(4) =   1
                l(5) =   2
                l(6) =   2
     Q(r) pseudized with  8 coefficients,  rinner =    1.000   1.000   1.000
                                                       1.000   1.000

     PseudoPot. # 4 for Fe read from file:
     /home/aldair1809/Programas/QE/q-e-qe-7.3/pseudo/fe_pbe_v1.5.uspp.F.UPF
     MD5 check sum: a130daea23fe5165f5d574ae7f82ed95
     Pseudo is Ultrasoft + core correction, Zval = 16.0
     Generated by new atomic code, or converted to UPF format
     Using radial grid of  861 points,  6 beta functions with:
                l(1) =   0
                l(2) =   0
                l(3) =   1
                l(4) =   1
                l(5) =   2
                l(6) =   2
     Q(r) pseudized with  8 coefficients,  rinner =    1.000   1.000   1.000
                                                       1.000   1.000

     atomic species   valence    mass     pseudopotential
        O              6.00    15.99940     O ( 1.00)
        Bi            15.00   208.98040     Bi( 1.00)
        Fe1           16.00    55.84500     Fe( 1.00)
        Fe2           16.00    55.84500     Fe( 1.00)

     Starting magnetic structure
     atomic species   magnetization
        O            0.000
        Bi           0.000
        Fe1         -0.800
        Fe2          0.800

      3 Sym. Ops. (no inversion) found

                                    s                        frac. trans.

      isym =  1     identity

 cryst.   s( 1) = (     1          0          0      )
                  (     0          1          0      )
                  (     0          0          1      )

 cart.    s( 1) = (  1.0000000 -0.0000000  0.0000000 )
                  (  0.0000000  1.0000000  0.0000000 )
                  (  0.0000000  0.0000000  1.0000000 )

      isym =  2     120 deg rotation - cryst. axis [0,0,1]

[...]

      isym =  3     120 deg rotation - cryst. axis [0,0,-1]

 cryst.   s( 3) = (    -1         -1          0      )
                  (     1          0          0      )
                  (     0          0          1      )

 cart.    s( 3) = ( -0.5000000  0.8660254  0.0000000 )
                  ( -0.8660254 -0.5000000  0.0000000 )
                  (  0.0000000  0.0000000  1.0000000 )

   Cartesian axes

     site n.     atom                  positions (alat units)
         1           Fe1 tau(   1) = (   0.0000000   0.0000000   1.9384582  )
         2           Fe1 tau(   2) = (  -0.0000005   0.5773506   2.3615556  )
         3           Fe1 tau(   3) = (   0.5000005   0.2886748   1.5200787  )
         4           Fe2 tau(   4) = (   0.5000005   0.2886748   0.2722626  )
         5           Fe2 tau(   5) = (   0.0000000   0.0000000   0.6907071  )
         6           Fe2 tau(   6) = (  -0.0000005   0.5773506   1.1137452  )
         7           Bi  tau(   7) = (   0.5000005   0.2886748   2.0843143  )
         8           Bi  tau(   8) = (  -0.0000005   0.5773506   1.6713980  )
         9           Bi  tau(   9) = (  -0.0000005   0.5773506   0.4235448  )
        10           Bi  tau(  10) = (   0.0000000   0.0000000   0.0002821  )
        11           Bi  tau(  11) = (   0.0000000   0.0000000   1.2481025  )
        12           Bi  tau(  12) = (   0.5000005   0.2886748   0.8364865  )
        13           O   tau(  13) = (  -0.3105904   0.6551932   2.2011299  )
        14           O   tau(  14) = (   0.0878817   0.2694488   2.2011299  )
        15           O   tau(  15) = (   0.2227102   0.8074080   2.2011299  )
        16           O   tau(  16) = (   0.4087504   0.5589755   1.7846473  )
        17           O   tau(  17) = (   0.3115373   0.0745013   1.7846473  )
        18           O   tau(  18) = (   0.7797108   0.2325494   1.7846473  )
        19           O   tau(  19) = (   0.6884743   0.0745026   0.5368244  )
        20           O   tau(  20) = (   0.5912412   0.5589858   0.5368244  )
        21           O   tau(  21) = (   0.2202830   0.2325379   0.5368244  )
        22           O   tau(  22) = (  -0.0823010   0.8482993   0.1166193  )
        23           O   tau(  23) = (  -0.1934983   0.3706010   0.1166193  )
        24           O   tau(  24) = (   0.2757993   0.5131505   0.1166193  )
        25           O   tau(  25) = (   0.1934855   0.3705936   1.3644430  )
        26           O   tau(  26) = (   0.0823138   0.8482919   1.3644430  )
        27           O   tau(  27) = (  -0.2757993   0.5131653   1.3644430  )
        28           O   tau(  28) = (  -0.0878870   0.2694458   0.9533686  )
        29           O   tau(  29) = (   0.3105971   0.6551893   0.9533686  )
        30           O   tau(  30) = (  -0.2227086   0.8074149   0.9533686  )

   Crystallographic axes

     site n.     atom                  positions (cryst. coord.)
         1           Fe1 tau(   1) = (  0.0000000  0.0000000  0.7767652  )
         2           Fe1 tau(   2) = (  0.3333330  0.6666670  0.9463058  )
         3           Fe1 tau(   3) = (  0.6666670  0.3333330  0.6091152  )
         4           Fe2 tau(   4) = (  0.6666670  0.3333330  0.1090991  )
         5           Fe2 tau(   5) = (  0.0000000  0.0000000  0.2767753  )
         6           Fe2 tau(   6) = (  0.3333330  0.6666670  0.4462921  )
         7           Bi  tau(   7) = (  0.6666670  0.3333330  0.8352117  )
         8           Bi  tau(   8) = (  0.3333330  0.6666670  0.6697508  )
         9           Bi  tau(   9) = (  0.3333330  0.6666670  0.1697199  )
        10           Bi  tau(  10) = (  0.0000000  0.0000000  0.0001130  )
        11           Bi  tau(  11) = (  0.0000000  0.0000000  0.5001308  )
        12           Bi  tau(  12) = (  0.6666670  0.3333330  0.3351910  )
        13           O   tau(  13) = (  0.0676856  0.7565520  0.8820212  )
        14           O   tau(  14) = (  0.2434480  0.3111326  0.8820212  )
        15           O   tau(  15) = (  0.6888674  0.9323144  0.8820212  )
        16           O   tau(  16) = (  0.7314750  0.6454493  0.7151312  )
        17           O   tau(  17) = (  0.3545507  0.0860267  0.7151312  )
        18           O   tau(  18) = (  0.9139733  0.2685250  0.7151312  )
        19           O   tau(  19) = (  0.7314884  0.0860282  0.2151125  )
        20           O   tau(  20) = (  0.9139718  0.6454612  0.2151125  )
        21           O   tau(  21) = (  0.3545388  0.2685116  0.2151125  )
        22           O   tau(  22) = (  0.4074649  0.9795317  0.0467309  )
        23           O   tau(  23) = (  0.0204683  0.4279331  0.0467309  )
        24           O   tau(  24) = (  0.5720669  0.5925351  0.0467309  )
        25           O   tau(  25) = (  0.4074478  0.4279246  0.5467499  )
        26           O   tau(  26) = (  0.5720754  0.9795232  0.5467499  )
        27           O   tau(  27) = (  0.0204768  0.5925522  0.5467499  )
        28           O   tau(  28) = (  0.0676775  0.3111292  0.3820271  )
        29           O   tau(  29) = (  0.6888708  0.7565474  0.3820271  )
        30           O   tau(  30) = (  0.2434526  0.9323225  0.3820271  )

     number of k points=     2  Gaussian smearing, width (Ry)=  0.0100
                       cart. coord. in units 2pi/alat
        k(    1) = (   0.0000000   0.0000000   0.0000000), wk =   0.2500000
        k(    2) = (   0.0000000  -0.5773503   0.0000000), wk =   0.7500000

                       cryst. coord.
        k(    1) = (   0.0000000   0.0000000   0.0000000), wk =   0.2500000
        k(    2) = (   0.0000000  -0.5000000   0.0000000), wk =   0.7500000

     Check: negative core charge=   -0.000013
     Generating pointlists ...
     new r_m :   0.1458 (alat units)  1.5374 (a.u.) for type    1
     new r_m :   0.1687 (alat units)  1.7788 (a.u.) for type    2
     new r_m :   0.1458 (alat units)  1.5374 (a.u.) for type    3
     new r_m :   0.1458 (alat units)  1.5374 (a.u.) for type    4

     Initial potential from superposition of free atoms

     starting charge  281.99969, renormalised to  294.00000

     negative rho (up, down):  1.292E-01 1.292E-01
     Starting wfcs are  204 randomized atomic wfcs

     Self-consistent Calculation

     iteration #  1     ecut=    80.00 Ry     beta= 0.20
     CG style diagonalization
     ethr =  1.00E-02,  avg # of iterations =  2.6

     negative rho (up, down):  1.251E-01 1.251E-01

     total energy              =   -3189.36386852 Ry
     estimated scf accuracy    <      22.82964677 Ry

     total magnetization       =     0.00 Bohr mag/cell
     absolute magnetization    =    30.55 Bohr mag/cell

[...]

     iteration #  6     ecut=    80.00 Ry     beta= 0.20
     CG style diagonalization
     c_bands:  3 eigenvalues not converged
     c_bands:  1 eigenvalues not converged
     ethr =  5.90E-05,  avg # of iterations =  3.9

[...]

     iteration # 10     ecut=    80.00 Ry     beta= 0.20
     CG style diagonalization
     ethr =  1.77E-05,  avg # of iterations =  3.0

[...]

     total energy              =   -3195.12430886 Ry
     estimated scf accuracy    <       0.00131193 Ry

[...]

     iteration # 13     ecut=    80.00 Ry     beta= 0.20
     CG style diagonalization
     c_bands:  1 eigenvalues not converged
     ethr =  4.46E-07,  avg # of iterations =  3.1

     negative rho (up, down):  1.213E-01 1.213E-01

     Magnetic moment per site:
     atom:    1    charge:   12.9898    magn:   -3.7199    constr:    0.0000
     atom:    2    charge:   13.0010    magn:   -3.6025    constr:    0.0000
     atom:    3    charge:   13.0165    magn:   -3.5932    constr:    0.0000
     atom:    4    charge:   13.0156    magn:    3.5937    constr:    0.0000
     atom:    5    charge:   12.9915    magn:    3.7189    constr:    0.0000
     atom:    6    charge:   13.0015    magn:    3.6023    constr:    0.0000
     atom:    7    charge:   10.4960    magn:   -0.0156    constr:    0.0000
     atom:    8    charge:   10.4954    magn:   -0.0123    constr:    0.0000
     atom:    9    charge:   10.4953    magn:    0.0123    constr:    0.0000
     atom:   10    charge:   10.4948    magn:   -0.0041    constr:    0.0000
     atom:   11    charge:   10.4948    magn:    0.0041    constr:    0.0000
     atom:   12    charge:   10.4959    magn:    0.0156    constr:    0.0000
     atom:   13    charge:    5.3960    magn:   -0.2074    constr:    0.0000
     atom:   14    charge:    5.3960    magn:   -0.2074    constr:    0.0000
     atom:   15    charge:    5.3960    magn:   -0.2074    constr:    0.0000
     atom:   16    charge:    5.3945    magn:   -0.2190    constr:    0.0000
     atom:   17    charge:    5.3945    magn:   -0.2190    constr:    0.0000
     atom:   18    charge:    5.3945    magn:   -0.2190    constr:    0.0000
     atom:   19    charge:    5.3935    magn:    0.2193    constr:    0.0000
     atom:   20    charge:    5.3935    magn:    0.2193    constr:    0.0000
     atom:   21    charge:    5.3935    magn:    0.2193    constr:    0.0000
     atom:   22    charge:    5.3851    magn:    0.0654    constr:    0.0000
     atom:   23    charge:    5.3851    magn:    0.0654    constr:    0.0000
     atom:   24    charge:    5.3851    magn:    0.0654    constr:    0.0000
     atom:   25    charge:    5.3851    magn:   -0.0657    constr:    0.0000
     atom:   26    charge:    5.3851    magn:   -0.0657    constr:    0.0000
     atom:   27    charge:    5.3851    magn:   -0.0657    constr:    0.0000
     atom:   28    charge:    5.3953    magn:    0.2076    constr:    0.0000
     atom:   29    charge:    5.3953    magn:    0.2076    constr:    0.0000
     atom:   30    charge:    5.3953    magn:    0.2076    constr:    0.0000

     End of self-consistent calculation

 ------ SPIN UP ------------

          k = 0.0000 0.0000 0.0000 ( 30555 PWs)   bands (ev):

   -79.2265 -79.0249 -78.9391 -74.2837 -74.2180 -74.1565 -45.2423 -45.1890
   -45.1890 -45.0137 -45.0137 -45.0075 -44.9964 -44.8871 -44.8871 -40.4318
   -40.3827 -40.3827 -40.3570 -40.3216 -40.3216 -40.3158 -40.2568 -40.2568
   -11.2490 -11.2490 -11.2157 -11.2157 -11.1926 -11.1926 -11.1618 -11.1525
   -11.1409 -11.1409 -11.1358 -11.1358 -11.1284 -11.1284 -11.1030 -11.0897
   -11.0814 -11.0814 -11.0730 -11.0730 -11.0697 -11.0697 -11.0597 -11.0579
   -11.0578 -11.0487 -11.0315 -11.0315 -11.0197 -11.0197  -7.8844  -7.5048
    -7.4163  -6.6419  -6.5898  -6.1780  -6.1779  -6.0665  -6.0535  -6.0535
    -5.9612  -5.9612  -5.8612  -5.8611  -5.7182  -5.7181  -5.5484  -5.5483
     0.8331   1.0742   1.1533   1.9303   2.0661   2.8215   4.9572   4.9572
     5.0488   5.4591   5.4591   5.5337   5.5680   5.5680   5.7185   5.7718
     5.7718   5.9612   6.0347   6.0347   6.2298   6.2299   6.2710   6.4274
     6.4274   6.4276   6.5199   6.7422   6.7422   7.0568   7.0568   7.1859
     7.3426   7.6277   7.6277   7.7573   7.8753   7.8753   7.9940   7.9941
     8.1784   8.3396   8.3557   8.3557   8.5311   8.5329   8.5330   8.6607
     8.6857   8.6857   8.8262   8.8262   8.9760   8.9760   9.3289   9.3290
     9.3546   9.3700   9.3701   9.4395   9.4396   9.7813   9.7814  10.1130
    10.2553  10.2553  10.2683  10.4423  10.5436  10.6768  10.7433  10.9704
    10.9704  11.6249  11.6250  12.1310  12.1311  12.3397  12.3482  12.3482
    12.3998  12.4544  12.4914  12.4914  13.3181  13.3181  13.9554  13.9555
    14.4987  14.4988  15.0733  15.1946  15.2952  15.3451  16.3924  16.3924
    16.5194  16.5195  16.5589  16.5589  16.8603  16.9018  17.1074  17.1074
    17.1876  17.1876  17.5969  17.5969  18.2930  19.5793  19.7961  19.9706
    20.6923  20.6923  20.9537  21.0372  21.6872  21.6872  21.7967  21.7967
    22.1217  22.1218  22.8316  22.9873  23.0327  23.0330  23.1871  23.1863

     occupation numbers
     1.0000   1.0000   1.0000   1.0000   1.0000   1.0000   1.0000   1.0000
     1.0000   1.0000   1.0000   1.0000   1.0000   1.0000   1.0000   1.0000
     1.0000   1.0000   1.0000   1.0000   1.0000   1.0000   1.0000   1.0000
     1.0000   1.0000   1.0000   1.0000   1.0000   1.0000   1.0000   1.0000
     1.0000   1.0000   1.0000   1.0000   1.0000   1.0000   1.0000   1.0000
     1.0000   1.0000   1.0000   1.0000   1.0000   1.0000   1.0000   1.0000
     1.0000   1.0000   1.0000   1.0000   1.0000   1.0000   1.0000   1.0000
     1.0000   1.0000   1.0000   1.0000   1.0000   1.0000   1.0000   1.0000
     1.0000   1.0000   1.0000   1.0000   1.0000   1.0000   1.0000   1.0000
     1.0000   1.0000   1.0000   1.0000   1.0000   1.0000   1.0000   1.0000
     1.0000   1.0000   1.0000   1.0000   1.0000   1.0000   1.0000   1.0000
     1.0000   1.0000   1.0000   1.0000   1.0000   1.0000   1.0000   1.0000
     1.0000   1.0000   1.0000   1.0000   1.0000   1.0000   1.0000   1.0000
     1.0000   1.0000   1.0000   1.0000   1.0000   1.0000   1.0000   1.0000
     1.0000   1.0000   1.0000   1.0000   1.0000   1.0000   1.0000   1.0000
     1.0000   1.0000   1.0000   1.0000   1.0000   1.0000   1.0000   1.0000
     1.0000   1.0000   1.0000   1.0000   1.0000   1.0000   1.0000   1.0000
     1.0000   1.0000   1.0000   1.0000   1.0000   1.0000   1.0000   1.0000
     1.0000   0.9899   0.9899   0.0017   0.0017   0.0000   0.0000   0.0000
     0.0000   0.0000   0.0000   0.0000   0.0000   0.0000   0.0000   0.0000
     0.0000   0.0000   0.0000   0.0000   0.0000   0.0000   0.0000   0.0000
     0.0000   0.0000   0.0000   0.0000   0.0000   0.0000   0.0000   0.0000
     0.0000   0.0000   0.0000   0.0000   0.0000   0.0000   0.0000   0.0000
     0.0000   0.0000   0.0000   0.0000   0.0000   0.0000   0.0000   0.0000
     0.0000   0.0000   0.0000   0.0000   0.0000   0.0000   0.0000   0.0000

[...]

 ------ SPIN DOWN ----------

[...]

          k = 0.0000-0.5774 0.0000 ( 30622 PWs)   bands (ev):

   -79.2233 -79.0235 -78.9442 -74.2854 -74.2191 -74.1516 -45.2389 -45.1863
   -45.1862 -45.0124 -45.0124 -45.0123 -44.9952 -44.8923 -44.8923 -40.4333
   -40.3842 -40.3841 -40.3580 -40.3227 -40.3227 -40.3110 -40.2519 -40.2519
   -11.2458 -11.2154 -11.2015 -11.1926 -11.1862 -11.1799 -11.1696 -11.1572
   -11.1418 -11.1373 -11.1305 -11.1269 -11.1172 -11.1152 -11.1095 -11.0993
   -11.0901 -11.0877 -11.0808 -11.0761 -11.0743 -11.0728 -11.0696 -11.0603
   -11.0584 -11.0485 -11.0448 -11.0366 -11.0334 -11.0208  -7.2308  -7.1894
    -7.0206  -6.8537  -6.8144  -6.4399  -6.4175  -6.3137  -6.1755  -6.0954
    -6.0621  -6.0349  -5.9676  -5.8950  -5.7888  -5.7444  -5.6534  -5.5646
     1.0174   1.2417   1.2630   1.5593   1.6222   1.8363   5.0579   5.3395
     5.3854   5.5050   5.6895   5.7021   5.8084   5.8413   5.8692   6.0339
     6.0660   6.1204   6.2283   6.2968   6.4981   6.5849   6.6544   6.7421
     6.7768   6.8303   6.9997   7.0644   7.1700   7.2294   7.2739   7.4041
     7.4741   7.5268   7.6490   7.7343   7.7859   7.8149   7.9100   7.9515
     8.0758   8.1630   8.2073   8.2885   8.3537   8.3844   8.4891   8.5232
     8.5761   8.6461   8.7204   8.7828   8.9526   9.0844   9.1026   9.1443
     9.2006   9.2412   9.2759   9.3876   9.4294   9.5103   9.5687   9.8763
    10.0680  10.1963  10.3783  10.4080  10.4618  10.6242  10.9001  10.9437
    11.0515  11.0876  11.5578  12.0894  12.1604  12.2764  12.3360  12.3779
    12.4428  12.4938  12.6737  12.7553  13.3619  13.4447  13.6213  13.8015
    13.8844  14.3870  14.5969  15.1363  15.1796  15.3705  15.4499  15.4815
    15.5278  15.5702  15.6499  16.6460  16.6932  16.7739  16.8425  16.9329
    16.9945  17.0635  17.1252  17.2030  20.0228  20.1952  20.4705  20.9842
    21.1189  21.2070  21.6941  21.8406  21.9744  22.2845  22.3229  22.3435
    22.4642  22.5095  22.8293  22.8880  23.1100  23.1769  23.2355  23.2894

     occupation numbers
     1.0000   1.0000   1.0000   1.0000   1.0000   1.0000   1.0000   1.0000
     1.0000   1.0000   1.0000   1.0000   1.0000   1.0000   1.0000   1.0000
     1.0000   1.0000   1.0000   1.0000   1.0000   1.0000   1.0000   1.0000
     1.0000   1.0000   1.0000   1.0000   1.0000   1.0000   1.0000   1.0000
     1.0000   1.0000   1.0000   1.0000   1.0000   1.0000   1.0000   1.0000
     1.0000   1.0000   1.0000   1.0000   1.0000   1.0000   1.0000   1.0000
     1.0000   1.0000   1.0000   1.0000   1.0000   1.0000   1.0000   1.0000
     1.0000   1.0000   1.0000   1.0000   1.0000   1.0000   1.0000   1.0000
     1.0000   1.0000   1.0000   1.0000   1.0000   1.0000   1.0000   1.0000
     1.0000   1.0000   1.0000   1.0000   1.0000   1.0000   1.0000   1.0000
     1.0000   1.0000   1.0000   1.0000   1.0000   1.0000   1.0000   1.0000
     1.0000   1.0000   1.0000   1.0000   1.0000   1.0000   1.0000   1.0000
     1.0000   1.0000   1.0000   1.0000   1.0000   1.0000   1.0000   1.0000
     1.0000   1.0000   1.0000   1.0000   1.0000   1.0000   1.0000   1.0000
     1.0000   1.0000   1.0000   1.0000   1.0000   1.0000   1.0000   1.0000
     1.0000   1.0000   1.0000   1.0000   1.0000   1.0000   1.0000   1.0000
     1.0000   1.0000   1.0000   1.0000   1.0000   1.0000   1.0000   1.0000
     1.0000   1.0000   1.0000   1.0000   1.0000   1.0000   1.0000   1.0000
     1.0000   1.0000   0.9987   0.0061   0.0006   0.0000   0.0000   0.0000
     0.0000   0.0000   0.0000   0.0000   0.0000   0.0000   0.0000   0.0000
     0.0000   0.0000   0.0000   0.0000   0.0000   0.0000   0.0000   0.0000
     0.0000   0.0000   0.0000   0.0000   0.0000   0.0000   0.0000   0.0000
     0.0000   0.0000   0.0000   0.0000   0.0000   0.0000   0.0000   0.0000
     0.0000   0.0000   0.0000   0.0000   0.0000   0.0000   0.0000   0.0000
     0.0000   0.0000   0.0000   0.0000   0.0000   0.0000   0.0000   0.0000

     the Fermi energy is    11.8485 ev

!    total energy              =   -3195.12458898 Ry
     estimated scf accuracy    <       0.00029589 Ry
     smearing contrib. (-TS)   =      -0.00047665 Ry
     internal energy E=F+TS    =   -3195.12411233 Ry

     The total energy is F=E-TS. E is the sum of the following terms:
     one-electron contribution =   -1315.71744815 Ry
     hartree contribution      =     843.46799097 Ry
     xc contribution           =    -695.22552597 Ry
     ewald contribution        =   -2027.64912917 Ry

     total magnetization       =    -0.00 Bohr mag/cell
     absolute magnetization    =    27.56 Bohr mag/cell

     convergence has been achieved in  13 iterations

     Writing output data file /home/aldair1809/Documentos/QE/4BFO/UHUBBARD/temp/ecut_ecutwfc_80.in/bifeo3-scf.save/

     General routines

     Parallel routines

   This run was terminated on:  17:59:53  29Sep2024

   JOB DONE.