     Program PWSCF v.6.7MaX starts on 28Sep2024 at 21:49:31

     R & G space division:  proc/nbgrp/npool/nimage =       4
     Waiting for input...
     Reading input from standard input

     Current dimensions of program PWSCF are:
     Max number of different atomic species (ntypx) = 10
     Max number of k-points (npk) =  40000
     Max angular momentum in pseudopotentials (lmaxx) =  3
     Message from routine iosys:
     wrong startingpot: use default (1)

     Message from routine setup:
     using ibrav=0 with symmetry is DISCOURAGED, use correct ibrav instead

     bravais-lattice index     =            0
     lattice parameter (alat)  =      10.5468  a.u.
     unit-cell volume          =    2535.5110 (a.u.)^3
     number of atoms/cell      =           30
     number of atomic types    =            4
     number of electrons       =       294.00
     number of Kohn-Sham states=          200
     kinetic-energy cutoff     =      20.0000  Ry
     charge density cutoff     =      80.0000  Ry
     scf convergence threshold =      1.0E-03
     mixing beta               =       0.2000
     number of iterations used =            8  plain     mixing
     Exchange-correlation= SLA  PW   PSX  PSC
                           (   1   4  10   8   0   0   0)

     celldm(1)=  10.546849  celldm(2)=   0.000000  celldm(3)=   0.000000
     celldm(4)=   0.000000  celldm(5)=   0.000000  celldm(6)=   0.000000

     crystal axes: (cart. coord. in units of alat)
               a(1) = (   1.000000  -0.000000  -0.000000 )
               a(2) = (  -0.500000   0.866025  -0.000000 )
               a(3) = (   0.000000  -0.000000   2.495552 )

     reciprocal axes: (cart. coord. in units 2 pi/alat)
               b(1) = (  1.000000  0.577350  0.000000 )
               b(2) = (  0.000000  1.154701  0.000000 )
               b(3) = (  0.000000  0.000000  0.400713 )

     PseudoPot. # 1 for O  read from file:
     /home/aldair1809/Programas/QE/q-e-qe-7.3/pseudo/o_pbesol_v1.2.uspp.F.UPF
     MD5 check sum: 501638753501ef6325af9037351f7734
     Pseudo is Ultrasoft + core correction, Zval =  6.0
     Generated by new atomic code, or converted to UPF format
     Using radial grid of  737 points,  5 beta functions with:
                l(1) =   0
                l(2) =   0
                l(3) =   1
                l(4) =   1
                l(5) =   2
     Q(r) pseudized with  8 coefficients,  rinner =    0.900   0.900   0.900
                                                       0.900   0.900

     PseudoPot. # 2 for Bi read from file:
     /home/aldair1809/Programas/QE/q-e-qe-7.3/pseudo/bi_pbesol_v1.uspp.F.UPF
     MD5 check sum: 588b87649a5c12ad5a0392deab1dcc00
     Pseudo is Ultrasoft + core correction, Zval = 15.0
     Generated by new atomic code, or converted to UPF format
     Using radial grid of  899 points,  6 beta functions with:
                l(1) =   0
                l(2) =   0
                l(3) =   1
                l(4) =   1
                l(5) =   2
                l(6) =   2
     Q(r) pseudized with  6 coefficients,  rinner =    1.000   1.000   1.000
                                                       1.000   1.000

     PseudoPot. # 3 for Fe read from file:
     /home/aldair1809/Programas/QE/q-e-qe-7.3/pseudo/fe_pbesol_v1.5.uspp.F.UPF
     MD5 check sum: a3f38e9a1a818e424be8f97771a26c64
     Pseudo is Ultrasoft + core correction, Zval = 16.0
     Generated by new atomic code, or converted to UPF format
     Using radial grid of  861 points,  6 beta functions with:
                l(1) =   0
                l(2) =   0
                l(3) =   1
                l(4) =   1
                l(5) =   2
                l(6) =   2
     Q(r) pseudized with  8 coefficients,  rinner =    1.000   1.000   1.000
                                                       1.000   1.000

     PseudoPot. # 4 for Fe read from file:
     /home/aldair1809/Programas/QE/q-e-qe-7.3/pseudo/fe_pbesol_v1.5.uspp.F.UPF
     MD5 check sum: a3f38e9a1a818e424be8f97771a26c64
     Pseudo is Ultrasoft + core correction, Zval = 16.0
     Generated by new atomic code, or converted to UPF format
     Using radial grid of  861 points,  6 beta functions with:
                l(1) =   0
                l(2) =   0
                l(3) =   1
                l(4) =   1
                l(5) =   2
                l(6) =   2
     Q(r) pseudized with  8 coefficients,  rinner =    1.000   1.000   1.000
                                                       1.000   1.000

     atomic species   valence    mass     pseudopotential
        O              6.00    15.99940     O ( 1.00)
        Bi            15.00   208.98040     Bi( 1.00)
        Fe1           16.00    55.84500     Fe( 1.00)
        Fe2           16.00    55.84500     Fe( 1.00)

     Starting magnetic structure
     atomic species   magnetization
        O            0.000
        Bi           0.000
        Fe1         -0.800
        Fe2          0.800

      3 Sym. Ops. (no inversion) found

                                    s                        frac. trans.

      isym =  1     identity

 cryst.   s( 1) = (     1          0          0      )
                  (     0          1          0      )
                  (     0          0          1      )

 cart.    s( 1) = (  1.0000000 -0.0000000  0.0000000 )
                  (  0.0000000  1.0000000  0.0000000 )
                  (  0.0000000  0.0000000  1.0000000 )

      isym =  2     120 deg rotation - cryst. axis [0,0,1]

[...]

      isym =  3     120 deg rotation - cryst. axis [0,0,-1]

 cryst.   s( 3) = (    -1         -1          0      )
                  (     1          0          0      )
                  (     0          0          1      )

 cart.    s( 3) = ( -0.5000000  0.8660254  0.0000000 )
                  ( -0.8660254 -0.5000000  0.0000000 )
                  (  0.0000000  0.0000000  1.0000000 )

   Cartesian axes

     site n.     atom                  positions (alat units)
         1           Fe1 tau(   1) = (   0.0000000   0.0000000   1.9384582  )
         2           Fe1 tau(   2) = (  -0.0000005   0.5773506   2.3615556  )
         3           Fe1 tau(   3) = (   0.5000005   0.2886748   1.5200787  )
         4           Fe2 tau(   4) = (   0.5000005   0.2886748   0.2722626  )
         5           Fe2 tau(   5) = (   0.0000000   0.0000000   0.6907071  )
         6           Fe2 tau(   6) = (  -0.0000005   0.5773506   1.1137452  )
         7           Bi  tau(   7) = (   0.5000005   0.2886748   2.0843143  )
         8           Bi  tau(   8) = (  -0.0000005   0.5773506   1.6713980  )
         9           Bi  tau(   9) = (  -0.0000005   0.5773506   0.4235448  )
        10           Bi  tau(  10) = (   0.0000000   0.0000000   0.0002821  )
        11           Bi  tau(  11) = (   0.0000000   0.0000000   1.2481025  )
        12           Bi  tau(  12) = (   0.5000005   0.2886748   0.8364865  )
        13           O   tau(  13) = (  -0.3105904   0.6551932   2.2011299  )
        14           O   tau(  14) = (   0.0878817   0.2694488   2.2011299  )
        15           O   tau(  15) = (   0.2227102   0.8074080   2.2011299  )
        16           O   tau(  16) = (   0.4087504   0.5589755   1.7846473  )
        17           O   tau(  17) = (   0.3115373   0.0745013   1.7846473  )
        18           O   tau(  18) = (   0.7797108   0.2325494   1.7846473  )
        19           O   tau(  19) = (   0.6884743   0.0745026   0.5368244  )
        20           O   tau(  20) = (   0.5912412   0.5589858   0.5368244  )
        21           O   tau(  21) = (   0.2202830   0.2325379   0.5368244  )
        22           O   tau(  22) = (  -0.0823010   0.8482993   0.1166193  )
        23           O   tau(  23) = (  -0.1934983   0.3706010   0.1166193  )
        24           O   tau(  24) = (   0.2757993   0.5131505   0.1166193  )
        25           O   tau(  25) = (   0.1934855   0.3705936   1.3644430  )
        26           O   tau(  26) = (   0.0823138   0.8482919   1.3644430  )
        27           O   tau(  27) = (  -0.2757993   0.5131653   1.3644430  )
        28           O   tau(  28) = (  -0.0878870   0.2694458   0.9533686  )
        29           O   tau(  29) = (   0.3105971   0.6551893   0.9533686  )
        30           O   tau(  30) = (  -0.2227086   0.8074149   0.9533686  )

   Crystallographic axes

     site n.     atom                  positions (cryst. coord.)
         1           Fe1 tau(   1) = (  0.0000000  0.0000000  0.7767652  )
         2           Fe1 tau(   2) = (  0.3333330  0.6666670  0.9463058  )
         3           Fe1 tau(   3) = (  0.6666670  0.3333330  0.6091152  )
         4           Fe2 tau(   4) = (  0.6666670  0.3333330  0.1090991  )
         5           Fe2 tau(   5) = (  0.0000000  0.0000000  0.2767753  )
         6           Fe2 tau(   6) = (  0.3333330  0.6666670  0.4462921  )
         7           Bi  tau(   7) = (  0.6666670  0.3333330  0.8352117  )
         8           Bi  tau(   8) = (  0.3333330  0.6666670  0.6697508  )
         9           Bi  tau(   9) = (  0.3333330  0.6666670  0.1697199  )
        10           Bi  tau(  10) = (  0.0000000  0.0000000  0.0001130  )
        11           Bi  tau(  11) = (  0.0000000  0.0000000  0.5001308  )
        12           Bi  tau(  12) = (  0.6666670  0.3333330  0.3351910  )
        13           O   tau(  13) = (  0.0676856  0.7565520  0.8820212  )
        14           O   tau(  14) = (  0.2434480  0.3111326  0.8820212  )
        15           O   tau(  15) = (  0.6888674  0.9323144  0.8820212  )
        16           O   tau(  16) = (  0.7314750  0.6454493  0.7151312  )
        17           O   tau(  17) = (  0.3545507  0.0860267  0.7151312  )
        18           O   tau(  18) = (  0.9139733  0.2685250  0.7151312  )
        19           O   tau(  19) = (  0.7314884  0.0860282  0.2151125  )
        20           O   tau(  20) = (  0.9139718  0.6454612  0.2151125  )
        21           O   tau(  21) = (  0.3545388  0.2685116  0.2151125  )
        22           O   tau(  22) = (  0.4074649  0.9795317  0.0467309  )
        23           O   tau(  23) = (  0.0204683  0.4279331  0.0467309  )
        24           O   tau(  24) = (  0.5720669  0.5925351  0.0467309  )
        25           O   tau(  25) = (  0.4074478  0.4279246  0.5467499  )
        26           O   tau(  26) = (  0.5720754  0.9795232  0.5467499  )
        27           O   tau(  27) = (  0.0204768  0.5925522  0.5467499  )
        28           O   tau(  28) = (  0.0676775  0.3111292  0.3820271  )
        29           O   tau(  29) = (  0.6888708  0.7565474  0.3820271  )
        30           O   tau(  30) = (  0.2434526  0.9323225  0.3820271  )

     number of k points=     2  Gaussian smearing, width (Ry)=  0.0100
                       cart. coord. in units 2pi/alat
        k(    1) = (   0.0000000   0.0000000   0.0000000), wk =   0.2500000
        k(    2) = (   0.0000000  -0.5773503   0.0000000), wk =   0.7500000

                       cryst. coord.
        k(    1) = (   0.0000000   0.0000000   0.0000000), wk =   0.2500000
        k(    2) = (   0.0000000  -0.5000000   0.0000000), wk =   0.7500000

     Check: negative core charge=   -0.001359
     Generating pointlists ...
     new r_m :   0.1458 (alat units)  1.5374 (a.u.) for type    1
     new r_m :   0.1687 (alat units)  1.7788 (a.u.) for type    2
     new r_m :   0.1458 (alat units)  1.5374 (a.u.) for type    3
     new r_m :   0.1458 (alat units)  1.5374 (a.u.) for type    4

     Initial potential from superposition of free atoms

     starting charge  281.99971, renormalised to  294.00000

     negative rho (up, down):  1.312E-01 1.314E-01
     Starting wfcs are  204 randomized atomic wfcs

     Self-consistent Calculation

     iteration #  1     ecut=    20.00 Ry     beta= 0.20
     CG style diagonalization
     ethr =  1.00E-02,  avg # of iterations =  2.7

     negative rho (up, down):  1.253E-01 1.256E-01

     total energy              =   -3174.91012160 Ry
     estimated scf accuracy    <      25.57166390 Ry

     total magnetization       =    -0.00 Bohr mag/cell
     absolute magnetization    =    30.64 Bohr mag/cell

[...]

     iteration # 13     ecut=    20.00 Ry     beta= 0.20
     CG style diagonalization
     c_bands:  1 eigenvalues not converged
     ethr =  6.00E-05,  avg # of iterations =  3.3

[...]

     iteration # 14     ecut=    20.00 Ry     beta= 0.20
     CG style diagonalization
     ethr =  3.74E-05,  avg # of iterations =  3.0

[...]

     total energy              =   -3180.09520321 Ry
     estimated scf accuracy    <       0.00235270 Ry

[...]

     iteration # 20     ecut=    20.00 Ry     beta= 0.20
     CG style diagonalization
     c_bands:  1 eigenvalues not converged
     ethr =  8.00E-07,  avg # of iterations =  3.0

     negative rho (up, down):  1.202E-01 1.201E-01

     Magnetic moment per site:
     atom:    1    charge:   13.1929    magn:   -3.6692    constr:    0.0000
     atom:    2    charge:   13.2040    magn:   -3.5729    constr:    0.0000
     atom:    3    charge:   13.1946    magn:   -3.5649    constr:    0.0000
     atom:    4    charge:   13.2010    magn:    3.5663    constr:    0.0000
     atom:    5    charge:   13.1999    magn:    3.6620    constr:    0.0000
     atom:    6    charge:   13.1859    magn:    3.5739    constr:    0.0000
     atom:    7    charge:   10.4666    magn:   -0.0199    constr:    0.0000
     atom:    8    charge:   10.4644    magn:   -0.0156    constr:    0.0000
     atom:    9    charge:   10.4638    magn:    0.0155    constr:    0.0000
     atom:   10    charge:   10.4736    magn:   -0.0053    constr:    0.0000
     atom:   11    charge:   10.4642    magn:    0.0053    constr:    0.0000
     atom:   12    charge:   10.4645    magn:    0.0200    constr:    0.0000
     atom:   13    charge:    5.3955    magn:   -0.2270    constr:    0.0000
     atom:   14    charge:    5.3955    magn:   -0.2270    constr:    0.0000
     atom:   15    charge:    5.3955    magn:   -0.2270    constr:    0.0000
     atom:   16    charge:    5.3900    magn:   -0.2407    constr:    0.0000
     atom:   17    charge:    5.3900    magn:   -0.2407    constr:    0.0000
     atom:   18    charge:    5.3900    magn:   -0.2407    constr:    0.0000
     atom:   19    charge:    5.3924    magn:    0.2409    constr:    0.0000
     atom:   20    charge:    5.3924    magn:    0.2409    constr:    0.0000
     atom:   21    charge:    5.3924    magn:    0.2409    constr:    0.0000
     atom:   22    charge:    5.3834    magn:    0.0750    constr:    0.0000
     atom:   23    charge:    5.3834    magn:    0.0750    constr:    0.0000
     atom:   24    charge:    5.3834    magn:    0.0750    constr:    0.0000
     atom:   25    charge:    5.3844    magn:   -0.0750    constr:    0.0000
     atom:   26    charge:    5.3844    magn:   -0.0750    constr:    0.0000
     atom:   27    charge:    5.3844    magn:   -0.0750    constr:    0.0000
     atom:   28    charge:    5.3967    magn:    0.2269    constr:    0.0000
     atom:   29    charge:    5.3967    magn:    0.2269    constr:    0.0000
     atom:   30    charge:    5.3967    magn:    0.2269    constr:    0.0000

     End of self-consistent calculation

 ------ SPIN UP ------------

          k = 0.0000 0.0000 0.0000 (  3823 PWs)   bands (ev):

   -81.3160 -81.1036 -81.0829 -76.5073 -76.4333 -76.4051 -46.4371 -46.4101
   -46.4101 -46.2565 -46.2304 -46.2304 -46.1756 -46.1359 -46.1359 -41.8256
   -41.7661 -41.7661 -41.7299 -41.7299 -41.7155 -41.6886 -41.6525 -41.6525
   -11.2444 -11.2444 -11.2026 -11.2026 -11.1825 -11.1825 -11.1524 -11.1188
   -11.1178 -11.1178 -11.1103 -11.1103 -11.0971 -11.0971 -11.0801 -11.0614
   -11.0466 -11.0466 -11.0389 -11.0389 -11.0329 -11.0310 -11.0310 -11.0192
   -11.0171 -11.0171 -10.9913 -10.9913 -10.9747 -10.9747  -8.4432  -8.0699
    -7.9658  -7.2433  -7.1772  -6.8242  -6.8241  -6.6838  -6.6838  -6.6721
    -6.5857  -6.5857  -6.4779  -6.4778  -6.3120  -6.3120  -6.1350  -6.1349
     0.6249   0.8581   0.9327   1.6852   1.8212   2.5581   4.7796   4.7796
     4.9522   5.2930   5.2931   5.3798   5.4312   5.4312   5.5760   5.6916
     5.6917   5.7994   5.8870   5.8870   6.0477   6.0928   6.0928   6.2496
     6.2497   6.2645   6.3611   6.5853   6.5853   6.8421   6.8421   7.0016
     7.1643   7.5050   7.5470   7.5470   7.7752   7.7753   7.8382   7.8382
     7.9488   8.0641   8.1577   8.1578   8.3663   8.3663   8.3683   8.4999
     8.5079   8.5079   8.6293   8.6293   8.7859   8.7859   9.0995   9.0996
     9.2090   9.2294   9.2294   9.2802   9.2802   9.6943   9.6943   9.8851
     9.8851  10.0162  10.1432  10.3133  10.3898  10.4442  10.4443  10.5253
    10.6180  11.0860  11.0861  11.6698  11.6698  11.7812  11.7812  11.8523
    11.9689  11.9689  11.9892  12.0279  12.6762  12.6763  13.2860  13.2861
    13.8647  13.8648  14.8821  14.9787  15.1030  15.1372  16.1627  16.1627
    16.2965  16.2966  16.3349  16.3350  16.6937  16.7536  16.9455  16.9455
    17.0287  17.0287  17.5090  17.5090  18.0492  19.4182  19.5883  19.7370
    20.4606  20.4606  20.7654  20.8373  21.4797  21.4797  21.5896  21.5898
    21.8515  21.8515  22.6730  22.8154  22.8156  22.8925  22.9692  22.9741

     occupation numbers
     1.0000   1.0000   1.0000   1.0000   1.0000   1.0000   1.0000   1.0000
     1.0000   1.0000   1.0000   1.0000   1.0000   1.0000   1.0000   1.0000
     1.0000   1.0000   1.0000   1.0000   1.0000   1.0000   1.0000   1.0000
     1.0000   1.0000   1.0000   1.0000   1.0000   1.0000   1.0000   1.0000
     1.0000   1.0000   1.0000   1.0000   1.0000   1.0000   1.0000   1.0000
     1.0000   1.0000   1.0000   1.0000   1.0000   1.0000   1.0000   1.0000
     1.0000   1.0000   1.0000   1.0000   1.0000   1.0000   1.0000   1.0000
     1.0000   1.0000   1.0000   1.0000   1.0000   1.0000   1.0000   1.0000
     1.0000   1.0000   1.0000   1.0000   1.0000   1.0000   1.0000   1.0000
     1.0000   1.0000   1.0000   1.0000   1.0000   1.0000   1.0000   1.0000
     1.0000   1.0000   1.0000   1.0000   1.0000   1.0000   1.0000   1.0000
     1.0000   1.0000   1.0000   1.0000   1.0000   1.0000   1.0000   1.0000
     1.0000   1.0000   1.0000   1.0000   1.0000   1.0000   1.0000   1.0000
     1.0000   1.0000   1.0000   1.0000   1.0000   1.0000   1.0000   1.0000
     1.0000   1.0000   1.0000   1.0000   1.0000   1.0000   1.0000   1.0000
     1.0000   1.0000   1.0000   1.0000   1.0000   1.0000   1.0000   1.0000
     1.0000   1.0000   1.0000   1.0000   1.0000   1.0000   1.0000   1.0000
     1.0000   1.0000   1.0000   1.0000   1.0000   1.0000   1.0000   1.0000
     1.0000   0.9972   0.9972   0.0005   0.0005   0.0000   0.0000   0.0000
     0.0000   0.0000   0.0000   0.0000   0.0000   0.0000   0.0000   0.0000
     0.0000   0.0000   0.0000   0.0000   0.0000   0.0000   0.0000   0.0000
     0.0000   0.0000   0.0000   0.0000   0.0000   0.0000   0.0000   0.0000
     0.0000   0.0000   0.0000   0.0000   0.0000   0.0000   0.0000   0.0000
     0.0000   0.0000   0.0000   0.0000   0.0000   0.0000   0.0000   0.0000
     0.0000   0.0000   0.0000   0.0000   0.0000   0.0000   0.0000   0.0000

[...]

 ------ SPIN DOWN ----------

[...]

          k = 0.0000-0.5774 0.0000 (  3794 PWs)   bands (ev):

   -81.2977 -81.1069 -81.0640 -76.5135 -76.4112 -76.4052 -46.4310 -46.4167
   -46.2909 -46.2542 -46.2251 -46.1675 -46.1671 -46.1135 -46.0203 -41.8290
   -41.8091 -41.7342 -41.7065 -41.6961 -41.6939 -41.6579 -41.5779 -41.5488
   -11.2408 -11.2027 -11.1837 -11.1794 -11.1722 -11.1614 -11.1517 -11.1394
   -11.1170 -11.1156 -11.1035 -11.0951 -11.0878 -11.0827 -11.0741 -11.0690
   -11.0614 -11.0543 -11.0467 -11.0440 -11.0413 -11.0364 -11.0293 -11.0253
   -11.0219 -11.0083 -11.0064 -10.9975 -10.9944 -10.9786  -7.8199  -7.7724
    -7.5943  -7.4395  -7.3834  -7.0487  -7.0161  -6.9473  -6.7965  -6.7096
    -6.6823  -6.6552  -6.5730  -6.5142  -6.3849  -6.3443  -6.2447  -6.1545
     0.7891   1.0145   1.0360   1.3236   1.3828   1.5874   4.9616   5.2680
     5.2958   5.4486   5.5917   5.6208   5.6618   5.7097   5.7310   5.9062
     5.9272   5.9801   6.1181   6.1659   6.3179   6.4561   6.5286   6.5866
     6.5959   6.6866   6.8583   6.9057   7.0184   7.0683   7.1241   7.2654
     7.3348   7.3692   7.5178   7.5951   7.6312   7.6919   7.7392   7.8390
     7.8912   7.9776   8.0499   8.0798   8.1437   8.2126   8.3222   8.3699
     8.4234   8.5186   8.5630   8.6362   8.8141   8.9446   8.9619   9.0192
     9.0536   9.0746   9.1423   9.2195   9.3088   9.3385   9.4053   9.5634
     9.8486  10.0139  10.0408  10.1584  10.2427  10.4006  10.5361  10.7122
    10.7616  10.8379  11.0800  11.5970  11.7348  11.8439  11.8840  11.9749
    11.9908  12.1262  12.2328  12.3421  12.7208  12.8656  13.1256  13.2478
    13.2849  13.8112  14.2593  14.8684  14.9196  15.1445  15.2163  15.2444
    15.2829  15.3429  15.4568  16.4767  16.5208  16.6029  16.6657  16.7905
    16.8536  16.9169  16.9807  17.0599  19.8644  20.0282  20.3098  20.7752
    20.9057  20.9940  21.4997  21.6605  21.7854  22.0716  22.1181  22.1469
    22.2592  22.3058  22.6973  22.7521  22.9564  23.0173  23.0754  23.1354

     occupation numbers
     1.0000   1.0000   1.0000   1.0000   1.0000   1.0000   1.0000   1.0000
     1.0000   1.0000   1.0000   1.0000   1.0000   1.0000   1.0000   1.0000
     1.0000   1.0000   1.0000   1.0000   1.0000   1.0000   1.0000   1.0000
     1.0000   1.0000   1.0000   1.0000   1.0000   1.0000   1.0000   1.0000
     1.0000   1.0000   1.0000   1.0000   1.0000   1.0000   1.0000   1.0000
     1.0000   1.0000   1.0000   1.0000   1.0000   1.0000   1.0000   1.0000
     1.0000   1.0000   1.0000   1.0000   1.0000   1.0000   1.0000   1.0000
     1.0000   1.0000   1.0000   1.0000   1.0000   1.0000   1.0000   1.0000
     1.0000   1.0000   1.0000   1.0000   1.0000   1.0000   1.0000   1.0000
     1.0000   1.0000   1.0000   1.0000   1.0000   1.0000   1.0000   1.0000
     1.0000   1.0000   1.0000   1.0000   1.0000   1.0000   1.0000   1.0000
     1.0000   1.0000   1.0000   1.0000   1.0000   1.0000   1.0000   1.0000
     1.0000   1.0000   1.0000   1.0000   1.0000   1.0000   1.0000   1.0000
     1.0000   1.0000   1.0000   1.0000   1.0000   1.0000   1.0000   1.0000
     1.0000   1.0000   1.0000   1.0000   1.0000   1.0000   1.0000   1.0000
     1.0000   1.0000   1.0000   1.0000   1.0000   1.0000   1.0000   1.0000
     1.0000   1.0000   1.0000   1.0000   1.0000   1.0000   1.0000   1.0000
     1.0000   1.0000   1.0000   1.0000   1.0000   1.0000   1.0000   1.0000
     1.0000   1.0000   0.9977   0.0055   0.0000   0.0000   0.0000   0.0000
     0.0000   0.0000   0.0000   0.0000   0.0000   0.0000   0.0000   0.0000
     0.0000   0.0000   0.0000   0.0000   0.0000   0.0000   0.0000   0.0000
     0.0000   0.0000   0.0000   0.0000   0.0000   0.0000   0.0000   0.0000
     0.0000   0.0000   0.0000   0.0000   0.0000   0.0000   0.0000   0.0000
     0.0000   0.0000   0.0000   0.0000   0.0000   0.0000   0.0000   0.0000
     0.0000   0.0000   0.0000   0.0000   0.0000   0.0000   0.0000   0.0000

     the Fermi energy is    11.3521 ev

!    total energy              =   -3180.09566410 Ry
     estimated scf accuracy    <       0.00053635 Ry
     smearing contrib. (-TS)   =      -0.00027665 Ry
     internal energy E=F+TS    =   -3180.09538746 Ry

     The total energy is F=E-TS. E is the sum of the following terms:
     one-electron contribution =   -1289.01885464 Ry
     hartree contribution      =     822.20975770 Ry
     xc contribution           =    -685.63716106 Ry
     ewald contribution        =   -2027.64912945 Ry

     total magnetization       =    -0.00 Bohr mag/cell
     absolute magnetization    =    27.51 Bohr mag/cell

     convergence has been achieved in  20 iterations

     Writing output data file /home/aldair1809/Documentos/QE/4BFO/UHUBBARD/temp/pseudo_o_pbesol_v1.2.uspp.F.UPF_ecutwfc_20.in/bifeo3-scf.save/

     General routines

     Parallel routines

   This run was terminated on:  21:57:16  28Sep2024

   JOB DONE.