     Program PWSCF v.6.7MaX starts on 28Sep2024 at 21: 6:26

     R & G space division:  proc/nbgrp/npool/nimage =       4
     Waiting for input...
     Reading input from standard input

     Current dimensions of program PWSCF are:
     Max number of different atomic species (ntypx) = 10
     Max number of k-points (npk) =  40000
     Max angular momentum in pseudopotentials (lmaxx) =  3
     Message from routine iosys:
     wrong startingpot: use default (1)

     Message from routine setup:
     using ibrav=0 with symmetry is DISCOURAGED, use correct ibrav instead

     bravais-lattice index     =            0
     lattice parameter (alat)  =      10.5468  a.u.
     unit-cell volume          =    2535.5110 (a.u.)^3
     number of atoms/cell      =           30
     number of atomic types    =            4
     number of electrons       =       294.00
     number of Kohn-Sham states=          200
     kinetic-energy cutoff     =      15.0000  Ry
     charge density cutoff     =      60.0000  Ry
     scf convergence threshold =      1.0E-03
     mixing beta               =       0.2000
     number of iterations used =            8  plain     mixing
     Exchange-correlation=  SLA  PW   PBX  PBC
                           (   1   4   3   4   0   0   0)

     celldm(1)=  10.546849  celldm(2)=   0.000000  celldm(3)=   0.000000
     celldm(4)=   0.000000  celldm(5)=   0.000000  celldm(6)=   0.000000

     crystal axes: (cart. coord. in units of alat)
               a(1) = (   1.000000  -0.000000  -0.000000 )
               a(2) = (  -0.500000   0.866025  -0.000000 )
               a(3) = (   0.000000  -0.000000   2.495552 )

     reciprocal axes: (cart. coord. in units 2 pi/alat)
               b(1) = (  1.000000  0.577350  0.000000 )
               b(2) = (  0.000000  1.154701  0.000000 )
               b(3) = (  0.000000  0.000000  0.400713 )

     PseudoPot. # 1 for O  read from file:
     /home/aldair1809/Programas/QE/q-e-qe-7.3/pseudo/o_pbe_v1.2.uspp.F.UPF
     MD5 check sum: 734c27235a0248c51dbae37a1fbe46ec
     Pseudo is Ultrasoft + core correction, Zval =  6.0
     Generated by new atomic code, or converted to UPF format
     Using radial grid of  737 points,  5 beta functions with:
                l(1) =   0
                l(2) =   0
                l(3) =   1
                l(4) =   1
                l(5) =   2
     Q(r) pseudized with  8 coefficients,  rinner =    0.900   0.900   0.900
                                                       0.900   0.900

     PseudoPot. # 2 for Bi read from file:
     /home/aldair1809/Programas/QE/q-e-qe-7.3/pseudo/bi_pbe_v1.uspp.F.UPF
     MD5 check sum: cceb9f28ec65b6d7ff33140f5b0b1758
     Pseudo is Ultrasoft + core correction, Zval = 15.0
     Generated by new atomic code, or converted to UPF format
     Using radial grid of  899 points,  6 beta functions with:
                l(1) =   0
                l(2) =   0
                l(3) =   1
                l(4) =   1
                l(5) =   2
                l(6) =   2
     Q(r) pseudized with  6 coefficients,  rinner =    1.000   1.000   1.000
                                                       1.000   1.000

     PseudoPot. # 3 for Fe read from file:
     /home/aldair1809/Programas/QE/q-e-qe-7.3/pseudo/fe_pbe_v1.5.uspp.F.UPF
     MD5 check sum: a130daea23fe5165f5d574ae7f82ed95
     Pseudo is Ultrasoft + core correction, Zval = 16.0
     Generated by new atomic code, or converted to UPF format
     Using radial grid of  861 points,  6 beta functions with:
                l(1) =   0
                l(2) =   0
                l(3) =   1
                l(4) =   1
                l(5) =   2
                l(6) =   2
     Q(r) pseudized with  8 coefficients,  rinner =    1.000   1.000   1.000
                                                       1.000   1.000

     PseudoPot. # 4 for Fe read from file:
     /home/aldair1809/Programas/QE/q-e-qe-7.3/pseudo/fe_pbe_v1.5.uspp.F.UPF
     MD5 check sum: a130daea23fe5165f5d574ae7f82ed95
     Pseudo is Ultrasoft + core correction, Zval = 16.0
     Generated by new atomic code, or converted to UPF format
     Using radial grid of  861 points,  6 beta functions with:
                l(1) =   0
                l(2) =   0
                l(3) =   1
                l(4) =   1
                l(5) =   2
                l(6) =   2
     Q(r) pseudized with  8 coefficients,  rinner =    1.000   1.000   1.000
                                                       1.000   1.000

     atomic species   valence    mass     pseudopotential
        O              6.00    15.99940     O ( 1.00)
        Bi            15.00   208.98040     Bi( 1.00)
        Fe1           16.00    55.84500     Fe( 1.00)
        Fe2           16.00    55.84500     Fe( 1.00)

     Starting magnetic structure
     atomic species   magnetization
        O            0.000
        Bi           0.000
        Fe1         -0.800
        Fe2          0.800

      3 Sym. Ops. (no inversion) found

                                    s                        frac. trans.

      isym =  1     identity

 cryst.   s( 1) = (     1          0          0      )
                  (     0          1          0      )
                  (     0          0          1      )

 cart.    s( 1) = (  1.0000000 -0.0000000  0.0000000 )
                  (  0.0000000  1.0000000  0.0000000 )
                  (  0.0000000  0.0000000  1.0000000 )

      isym =  2     120 deg rotation - cryst. axis [0,0,1]

[...]

      isym =  3     120 deg rotation - cryst. axis [0,0,-1]

 cryst.   s( 3) = (    -1         -1          0      )
                  (     1          0          0      )
                  (     0          0          1      )

 cart.    s( 3) = ( -0.5000000  0.8660254  0.0000000 )
                  ( -0.8660254 -0.5000000  0.0000000 )
                  (  0.0000000  0.0000000  1.0000000 )

   Cartesian axes

     site n.     atom                  positions (alat units)
         1           Fe1 tau(   1) = (   0.0000000   0.0000000   1.9384582  )
         2           Fe1 tau(   2) = (  -0.0000005   0.5773506   2.3615556  )
         3           Fe1 tau(   3) = (   0.5000005   0.2886748   1.5200787  )
         4           Fe2 tau(   4) = (   0.5000005   0.2886748   0.2722626  )
         5           Fe2 tau(   5) = (   0.0000000   0.0000000   0.6907071  )
         6           Fe2 tau(   6) = (  -0.0000005   0.5773506   1.1137452  )
         7           Bi  tau(   7) = (   0.5000005   0.2886748   2.0843143  )
         8           Bi  tau(   8) = (  -0.0000005   0.5773506   1.6713980  )
         9           Bi  tau(   9) = (  -0.0000005   0.5773506   0.4235448  )
        10           Bi  tau(  10) = (   0.0000000   0.0000000   0.0002821  )
        11           Bi  tau(  11) = (   0.0000000   0.0000000   1.2481025  )
        12           Bi  tau(  12) = (   0.5000005   0.2886748   0.8364865  )
        13           O   tau(  13) = (  -0.3105904   0.6551932   2.2011299  )
        14           O   tau(  14) = (   0.0878817   0.2694488   2.2011299  )
        15           O   tau(  15) = (   0.2227102   0.8074080   2.2011299  )
        16           O   tau(  16) = (   0.4087504   0.5589755   1.7846473  )
        17           O   tau(  17) = (   0.3115373   0.0745013   1.7846473  )
        18           O   tau(  18) = (   0.7797108   0.2325494   1.7846473  )
        19           O   tau(  19) = (   0.6884743   0.0745026   0.5368244  )
        20           O   tau(  20) = (   0.5912412   0.5589858   0.5368244  )
        21           O   tau(  21) = (   0.2202830   0.2325379   0.5368244  )
        22           O   tau(  22) = (  -0.0823010   0.8482993   0.1166193  )
        23           O   tau(  23) = (  -0.1934983   0.3706010   0.1166193  )
        24           O   tau(  24) = (   0.2757993   0.5131505   0.1166193  )
        25           O   tau(  25) = (   0.1934855   0.3705936   1.3644430  )
        26           O   tau(  26) = (   0.0823138   0.8482919   1.3644430  )
        27           O   tau(  27) = (  -0.2757993   0.5131653   1.3644430  )
        28           O   tau(  28) = (  -0.0878870   0.2694458   0.9533686  )
        29           O   tau(  29) = (   0.3105971   0.6551893   0.9533686  )
        30           O   tau(  30) = (  -0.2227086   0.8074149   0.9533686  )

   Crystallographic axes

     site n.     atom                  positions (cryst. coord.)
         1           Fe1 tau(   1) = (  0.0000000  0.0000000  0.7767652  )
         2           Fe1 tau(   2) = (  0.3333330  0.6666670  0.9463058  )
         3           Fe1 tau(   3) = (  0.6666670  0.3333330  0.6091152  )
         4           Fe2 tau(   4) = (  0.6666670  0.3333330  0.1090991  )
         5           Fe2 tau(   5) = (  0.0000000  0.0000000  0.2767753  )
         6           Fe2 tau(   6) = (  0.3333330  0.6666670  0.4462921  )
         7           Bi  tau(   7) = (  0.6666670  0.3333330  0.8352117  )
         8           Bi  tau(   8) = (  0.3333330  0.6666670  0.6697508  )
         9           Bi  tau(   9) = (  0.3333330  0.6666670  0.1697199  )
        10           Bi  tau(  10) = (  0.0000000  0.0000000  0.0001130  )
        11           Bi  tau(  11) = (  0.0000000  0.0000000  0.5001308  )
        12           Bi  tau(  12) = (  0.6666670  0.3333330  0.3351910  )
        13           O   tau(  13) = (  0.0676856  0.7565520  0.8820212  )
        14           O   tau(  14) = (  0.2434480  0.3111326  0.8820212  )
        15           O   tau(  15) = (  0.6888674  0.9323144  0.8820212  )
        16           O   tau(  16) = (  0.7314750  0.6454493  0.7151312  )
        17           O   tau(  17) = (  0.3545507  0.0860267  0.7151312  )
        18           O   tau(  18) = (  0.9139733  0.2685250  0.7151312  )
        19           O   tau(  19) = (  0.7314884  0.0860282  0.2151125  )
        20           O   tau(  20) = (  0.9139718  0.6454612  0.2151125  )
        21           O   tau(  21) = (  0.3545388  0.2685116  0.2151125  )
        22           O   tau(  22) = (  0.4074649  0.9795317  0.0467309  )
        23           O   tau(  23) = (  0.0204683  0.4279331  0.0467309  )
        24           O   tau(  24) = (  0.5720669  0.5925351  0.0467309  )
        25           O   tau(  25) = (  0.4074478  0.4279246  0.5467499  )
        26           O   tau(  26) = (  0.5720754  0.9795232  0.5467499  )
        27           O   tau(  27) = (  0.0204768  0.5925522  0.5467499  )
        28           O   tau(  28) = (  0.0676775  0.3111292  0.3820271  )
        29           O   tau(  29) = (  0.6888708  0.7565474  0.3820271  )
        30           O   tau(  30) = (  0.2434526  0.9323225  0.3820271  )

     number of k points=     2  Gaussian smearing, width (Ry)=  0.0100
                       cart. coord. in units 2pi/alat
        k(    1) = (   0.0000000   0.0000000   0.0000000), wk =   0.2500000
        k(    2) = (   0.0000000  -0.5773503   0.0000000), wk =   0.7500000

                       cryst. coord.
        k(    1) = (   0.0000000   0.0000000   0.0000000), wk =   0.2500000
        k(    2) = (   0.0000000  -0.5000000   0.0000000), wk =   0.7500000

     Check: negative core charge=   -0.002650
     Generating pointlists ...
     new r_m :   0.1458 (alat units)  1.5374 (a.u.) for type    1
     new r_m :   0.1687 (alat units)  1.7788 (a.u.) for type    2
     new r_m :   0.1458 (alat units)  1.5374 (a.u.) for type    3
     new r_m :   0.1458 (alat units)  1.5374 (a.u.) for type    4

     Initial potential from superposition of free atoms

     starting charge  281.99969, renormalised to  294.00000

     negative rho (up, down):  2.561E-01 2.561E-01
     Starting wfcs are  204 randomized atomic wfcs

     Self-consistent Calculation

     iteration #  1     ecut=    15.00 Ry     beta= 0.20
     CG style diagonalization
     ethr =  1.00E-02,  avg # of iterations =  3.1

     negative rho (up, down):  1.889E-01 1.890E-01

     total energy              =   -3139.48698457 Ry
     estimated scf accuracy    <      63.59095646 Ry

     total magnetization       =     0.03 Bohr mag/cell
     absolute magnetization    =    27.04 Bohr mag/cell

[...]

     iteration # 14     ecut=    15.00 Ry     beta= 0.20
     CG style diagonalization
     c_bands:  1 eigenvalues not converged
     ethr =  2.78E-05,  avg # of iterations =  3.2

[...]

     iteration # 19     ecut=    15.00 Ry     beta= 0.20
     CG style diagonalization
     c_bands:  1 eigenvalues not converged
     ethr =  3.42E-06,  avg # of iterations =  3.2

[...]

     total energy              =   -3145.25430329 Ry
     estimated scf accuracy    <       0.00202834 Ry

[...]

     iteration # 27     ecut=    15.00 Ry     beta= 0.20
     CG style diagonalization
     ethr =  4.11E-07,  avg # of iterations =  3.1

     negative rho (up, down):  1.539E-01 1.539E-01

     Magnetic moment per site:
     atom:    1    charge:   13.3799    magn:   -0.8969    constr:    0.0000
     atom:    2    charge:   13.3635    magn:   -0.9069    constr:    0.0000
     atom:    3    charge:   13.3639    magn:   -1.0148    constr:    0.0000
     atom:    4    charge:   13.3718    magn:    1.0255    constr:    0.0000
     atom:    5    charge:   13.3803    magn:    0.9050    constr:    0.0000
     atom:    6    charge:   13.3640    magn:    0.9120    constr:    0.0000
     atom:    7    charge:   10.4860    magn:   -0.0043    constr:    0.0000
     atom:    8    charge:   10.4884    magn:   -0.0013    constr:    0.0000
     atom:    9    charge:   10.4886    magn:    0.0014    constr:    0.0000
     atom:   10    charge:   10.4601    magn:   -0.0046    constr:    0.0000
     atom:   11    charge:   10.4602    magn:    0.0045    constr:    0.0000
     atom:   12    charge:   10.4862    magn:    0.0044    constr:    0.0000
     atom:   13    charge:    5.3674    magn:    0.0002    constr:    0.0000
     atom:   14    charge:    5.3674    magn:    0.0002    constr:    0.0000
     atom:   15    charge:    5.3674    magn:    0.0002    constr:    0.0000
     atom:   16    charge:    5.3638    magn:   -0.0138    constr:    0.0000
     atom:   17    charge:    5.3638    magn:   -0.0138    constr:    0.0000
     atom:   18    charge:    5.3638    magn:   -0.0138    constr:    0.0000
     atom:   19    charge:    5.3656    magn:    0.0136    constr:    0.0000
     atom:   20    charge:    5.3656    magn:    0.0136    constr:    0.0000
     atom:   21    charge:    5.3656    magn:    0.0136    constr:    0.0000
     atom:   22    charge:    5.3570    magn:   -0.0013    constr:    0.0000
     atom:   23    charge:    5.3570    magn:   -0.0013    constr:    0.0000
     atom:   24    charge:    5.3570    magn:   -0.0013    constr:    0.0000
     atom:   25    charge:    5.3569    magn:    0.0012    constr:    0.0000
     atom:   26    charge:    5.3569    magn:    0.0012    constr:    0.0000
     atom:   27    charge:    5.3569    magn:    0.0012    constr:    0.0000
     atom:   28    charge:    5.3693    magn:    0.0001    constr:    0.0000
     atom:   29    charge:    5.3693    magn:    0.0001    constr:    0.0000
     atom:   30    charge:    5.3693    magn:    0.0001    constr:    0.0000

     End of self-consistent calculation

 ------ SPIN UP ------------

          k = 0.0000 0.0000 0.0000 (  2529 PWs)   bands (ev):

   -86.8709 -86.7410 -86.6528 -85.7347 -85.6142 -85.4796 -48.2752 -48.2752
   -48.1471 -47.9370 -47.9370 -47.7784 -47.5463 -47.5463 -47.5151 -46.9691
   -46.9691 -46.8006 -46.8006 -46.5619 -46.5593 -46.5593 -46.1188 -46.0061
   -11.1884 -11.1884 -11.1216 -11.1215 -11.0946 -11.0946 -11.0030 -10.9876
   -10.9876 -10.9803 -10.9771 -10.9771 -10.9539 -10.9539 -10.9414 -10.9044
   -10.8772 -10.8772 -10.8687 -10.8687 -10.8656 -10.8572 -10.8572 -10.8417
   -10.8417 -10.8369 -10.8355 -10.8355 -10.8307 -10.8307  -9.6705  -9.3600
    -9.3439  -8.6834  -8.6493  -8.3172  -8.2961  -8.2961  -8.2219  -8.2219
    -8.1513  -8.1513  -7.9899  -7.9899  -7.9325  -7.9325  -7.8733  -7.8733
     0.9068   1.1115   1.1987   1.8349   1.9509   2.6037   4.9410   4.9410
     5.0287   5.5711   5.6947   5.7580   5.7581   5.7710   5.7711   6.0485
     6.1422   6.1422   6.2424   6.2425   6.3298   6.3571   6.3571   6.4118
     6.4519   6.6074   6.6074   6.8002   6.8002   7.0049   7.0049   7.5217
     7.5217   7.5455   7.6512   7.8221   7.8221   7.8554   7.8554   8.0997
     8.3114   8.5186   8.5832   8.5833   8.6322   8.6323   8.6701   8.6701
     8.7265   9.0400   9.0400   9.1421   9.3173   9.3453   9.3453   9.3686
     9.3686   9.6101   9.6102   9.8390   9.8390   9.8767  10.2950  10.2950
    10.3197  10.3474  10.3474  10.3597  10.4755  10.4755  10.5917  10.8213
    10.8213  10.8814  10.8814  10.9400  11.0235  11.9929  12.3367  12.3662
    12.4277  12.4278  12.7130  12.7130  13.7093  13.7094  14.2081  14.2081
    14.5769  14.5770  15.2187  15.3005  15.4161  15.4449  16.5114  16.5114
    16.7070  16.7071  16.7924  16.7924  16.8749  17.1972  17.4582  17.4582
    17.5516  17.5517  17.8054  17.8054  18.2062  19.8423  20.0856  20.1826
    20.9489  20.9489  21.3659  21.4330  22.1577  22.1578  22.2533  22.2533
    22.3402  22.3402  23.2577  23.5782  23.5783  23.7114  23.7115  23.9252

     occupation numbers
     1.0000   1.0000   1.0000   1.0000   1.0000   1.0000   1.0000   1.0000
     1.0000   1.0000   1.0000   1.0000   1.0000   1.0000   1.0000   1.0000
     1.0000   1.0000   1.0000   1.0000   1.0000   1.0000   1.0000   1.0000
     1.0000   1.0000   1.0000   1.0000   1.0000   1.0000   1.0000   1.0000
     1.0000   1.0000   1.0000   1.0000   1.0000   1.0000   1.0000   1.0000
     1.0000   1.0000   1.0000   1.0000   1.0000   1.0000   1.0000   1.0000
     1.0000   1.0000   1.0000   1.0000   1.0000   1.0000   1.0000   1.0000
     1.0000   1.0000   1.0000   1.0000   1.0000   1.0000   1.0000   1.0000
     1.0000   1.0000   1.0000   1.0000   1.0000   1.0000   1.0000   1.0000
     1.0000   1.0000   1.0000   1.0000   1.0000   1.0000   1.0000   1.0000
     1.0000   1.0000   1.0000   1.0000   1.0000   1.0000   1.0000   1.0000
     1.0000   1.0000   1.0000   1.0000   1.0000   1.0000   1.0000   1.0000
     1.0000   1.0000   1.0000   1.0000   1.0000   1.0000   1.0000   1.0000
     1.0000   1.0000   1.0000   1.0000   1.0000   1.0000   1.0000   1.0000
     1.0000   1.0000   1.0000   1.0000   1.0000   1.0000   1.0000   1.0000
     1.0000   1.0000   1.0000   1.0000   1.0000   1.0000   1.0000   1.0000
     1.0000   1.0000   1.0000   1.0000   1.0000   1.0000   1.0000   1.0000
     1.0000   1.0000   1.0000   1.0000   1.0000   1.0000   1.0000   1.0000
     1.0000   1.0000   1.0000   1.0000   1.0000   0.1266   0.0000   0.0000
     0.0000   0.0000   0.0000   0.0000   0.0000   0.0000   0.0000   0.0000
     0.0000   0.0000   0.0000   0.0000   0.0000   0.0000   0.0000   0.0000
     0.0000   0.0000   0.0000   0.0000   0.0000   0.0000   0.0000   0.0000
     0.0000   0.0000   0.0000   0.0000   0.0000   0.0000   0.0000   0.0000
     0.0000   0.0000   0.0000   0.0000   0.0000   0.0000   0.0000   0.0000
     0.0000   0.0000   0.0000   0.0000   0.0000   0.0000   0.0000   0.0000

[...]

 ------ SPIN DOWN ----------

[...]

          k = 0.0000-0.5774 0.0000 (  2466 PWs)   bands (ev):

   -86.6438 -86.5980 -86.4933 -85.5679 -85.4776 -85.3381 -47.8316 -47.7389
   -47.7372 -47.6940 -47.5720 -47.0561 -47.0427 -47.0154 -46.8833 -46.7121
   -46.3614 -46.3140 -46.2956 -46.1636 -46.0227 -45.9334 -45.8742 -45.6902
   -11.1674 -11.1241 -11.0989 -11.0777 -11.0683 -11.0644 -11.0427 -11.0318
   -10.9881 -10.9850 -10.9726 -10.9655 -10.9449 -10.9260 -10.9195 -10.9116
   -10.9059 -10.8862 -10.8809 -10.8749 -10.8724 -10.8630 -10.8578 -10.8546
   -10.8513 -10.8474 -10.8431 -10.8376 -10.8336 -10.8298  -9.0949  -9.0758
    -9.0092  -8.8493  -8.8388  -8.5411  -8.4993  -8.4059  -8.3165  -8.2647
    -8.1854  -8.1593  -8.0498  -8.0270  -8.0014  -7.9592  -7.9443  -7.8450
     1.0565   1.2192   1.2582   1.5008   1.5531   1.6690   5.3713   5.5878
     5.6585   5.7406   5.7559   5.9144   6.0608   6.0770   6.1133   6.1423
     6.3156   6.3478   6.3732   6.6936   6.7154   6.7528   6.8745   6.9686
     7.1693   7.3000   7.3466   7.3594   7.4282   7.5120   7.5331   7.5728
     7.6291   7.6895   7.7553   7.9179   8.1114   8.2465   8.2686   8.3616
     8.4031   8.5123   8.5664   8.7051   8.7616   8.7970   8.8874   8.9649
     8.9876   9.0388   9.0429   9.2260   9.2633   9.3018   9.3335   9.3632
     9.6659   9.7578   9.7807  10.1598  10.1943  10.2873  10.6033  10.7514
    10.7975  10.8284  11.0143  11.0692  11.2770  11.2992  11.3864  11.4067
    11.5320  11.7989  11.9035  12.0460  12.1534  12.2589  12.4140  12.5539
    12.6021  12.6428  12.7805  13.0556  13.2689  13.5386  13.6878  14.0656
    14.4455  14.8292  15.2338  15.3345  15.3699  15.5449  15.6210  15.7544
    15.8153  15.8864  16.3241  17.0022  17.0173  17.0604  17.1753  17.2964
    17.3874  17.4190  17.4624  17.4813  20.8090  20.9305  21.1120  21.2127
    21.3362  21.7275  22.2179  22.4148  22.5295  22.6725  22.7227  22.7578
    22.8286  22.8857  23.4679  23.5334  23.5904  23.6277  23.8160  23.8942

     occupation numbers
     1.0000   1.0000   1.0000   1.0000   1.0000   1.0000   1.0000   1.0000
     1.0000   1.0000   1.0000   1.0000   1.0000   1.0000   1.0000   1.0000
     1.0000   1.0000   1.0000   1.0000   1.0000   1.0000   1.0000   1.0000
     1.0000   1.0000   1.0000   1.0000   1.0000   1.0000   1.0000   1.0000
     1.0000   1.0000   1.0000   1.0000   1.0000   1.0000   1.0000   1.0000
     1.0000   1.0000   1.0000   1.0000   1.0000   1.0000   1.0000   1.0000
     1.0000   1.0000   1.0000   1.0000   1.0000   1.0000   1.0000   1.0000
     1.0000   1.0000   1.0000   1.0000   1.0000   1.0000   1.0000   1.0000
     1.0000   1.0000   1.0000   1.0000   1.0000   1.0000   1.0000   1.0000
     1.0000   1.0000   1.0000   1.0000   1.0000   1.0000   1.0000   1.0000
     1.0000   1.0000   1.0000   1.0000   1.0000   1.0000   1.0000   1.0000
     1.0000   1.0000   1.0000   1.0000   1.0000   1.0000   1.0000   1.0000
     1.0000   1.0000   1.0000   1.0000   1.0000   1.0000   1.0000   1.0000
     1.0000   1.0000   1.0000   1.0000   1.0000   1.0000   1.0000   1.0000
     1.0000   1.0000   1.0000   1.0000   1.0000   1.0000   1.0000   1.0000
     1.0000   1.0000   1.0000   1.0000   1.0000   1.0000   1.0000   1.0000
     1.0000   1.0000   1.0000   1.0000   1.0000   1.0000   1.0000   1.0000
     1.0000   1.0000   1.0000   1.0000   1.0000   1.0000   1.0000   1.0000
     0.9999   0.8088   0.4153   0.0451   0.0025   0.0000   0.0000   0.0000
     0.0000   0.0000   0.0000   0.0000   0.0000   0.0000   0.0000   0.0000
     0.0000   0.0000   0.0000   0.0000   0.0000   0.0000   0.0000   0.0000
     0.0000   0.0000   0.0000   0.0000   0.0000   0.0000   0.0000   0.0000
     0.0000   0.0000   0.0000   0.0000   0.0000   0.0000   0.0000   0.0000
     0.0000   0.0000   0.0000   0.0000   0.0000   0.0000   0.0000   0.0000
     0.0000   0.0000   0.0000   0.0000   0.0000   0.0000   0.0000   0.0000

     the Fermi energy is    11.8829 ev

!    total energy              =   -3145.25580913 Ry
     estimated scf accuracy    <       0.00037655 Ry
     smearing contrib. (-TS)   =      -0.00882948 Ry
     internal energy E=F+TS    =   -3145.24697965 Ry

     The total energy is F=E-TS. E is the sum of the following terms:
     one-electron contribution =   -1206.33502334 Ry
     hartree contribution      =     769.24747816 Ry
     xc contribution           =    -680.51030158 Ry
     ewald contribution        =   -2027.64913289 Ry

     total magnetization       =     0.03 Bohr mag/cell
     absolute magnetization    =     8.90 Bohr mag/cell

     convergence has been achieved in  27 iterations

     Writing output data file /home/aldair1809/Documentos/QE/4BFO/UHUBBARD/temp/pseudo_o_pbe_v1.2.uspp.F.UPF_ecutwfc_15.in/bifeo3-scf.save/

     General routines

     Parallel routines

   This run was terminated on:  21:13:39  28Sep2024

   JOB DONE.