     Program PWSCF v.6.7MaX starts on 28Sep2024 at 21: 2:46

     R & G space division:  proc/nbgrp/npool/nimage =       4
     Waiting for input...
     Reading input from standard input

     Current dimensions of program PWSCF are:
     Max number of different atomic species (ntypx) = 10
     Max number of k-points (npk) =  40000
     Max angular momentum in pseudopotentials (lmaxx) =  3
     Message from routine iosys:
     wrong startingpot: use default (1)

     Message from routine setup:
     using ibrav=0 with symmetry is DISCOURAGED, use correct ibrav instead

     bravais-lattice index     =            0
     lattice parameter (alat)  =      10.5468  a.u.
     unit-cell volume          =    2535.5110 (a.u.)^3
     number of atoms/cell      =           30
     number of atomic types    =            4
     number of electrons       =       294.00
     number of Kohn-Sham states=          200
     kinetic-energy cutoff     =      12.0000  Ry
     charge density cutoff     =      48.0000  Ry
     scf convergence threshold =      1.0E-03
     mixing beta               =       0.2000
     number of iterations used =            8  plain     mixing
     Exchange-correlation=  SLA  PW   PBX  PBC
                           (   1   4   3   4   0   0   0)

     celldm(1)=  10.546849  celldm(2)=   0.000000  celldm(3)=   0.000000
     celldm(4)=   0.000000  celldm(5)=   0.000000  celldm(6)=   0.000000

     crystal axes: (cart. coord. in units of alat)
               a(1) = (   1.000000  -0.000000  -0.000000 )
               a(2) = (  -0.500000   0.866025  -0.000000 )
               a(3) = (   0.000000  -0.000000   2.495552 )

     reciprocal axes: (cart. coord. in units 2 pi/alat)
               b(1) = (  1.000000  0.577350  0.000000 )
               b(2) = (  0.000000  1.154701  0.000000 )
               b(3) = (  0.000000  0.000000  0.400713 )

     PseudoPot. # 1 for O  read from file:
     /home/aldair1809/Programas/QE/q-e-qe-7.3/pseudo/o_pbe_v1.2.uspp.F.UPF
     MD5 check sum: 734c27235a0248c51dbae37a1fbe46ec
     Pseudo is Ultrasoft + core correction, Zval =  6.0
     Generated by new atomic code, or converted to UPF format
     Using radial grid of  737 points,  5 beta functions with:
                l(1) =   0
                l(2) =   0
                l(3) =   1
                l(4) =   1
                l(5) =   2
     Q(r) pseudized with  8 coefficients,  rinner =    0.900   0.900   0.900
                                                       0.900   0.900

     PseudoPot. # 2 for Bi read from file:
     /home/aldair1809/Programas/QE/q-e-qe-7.3/pseudo/bi_pbe_v1.uspp.F.UPF
     MD5 check sum: cceb9f28ec65b6d7ff33140f5b0b1758
     Pseudo is Ultrasoft + core correction, Zval = 15.0
     Generated by new atomic code, or converted to UPF format
     Using radial grid of  899 points,  6 beta functions with:
                l(1) =   0
                l(2) =   0
                l(3) =   1
                l(4) =   1
                l(5) =   2
                l(6) =   2
     Q(r) pseudized with  6 coefficients,  rinner =    1.000   1.000   1.000
                                                       1.000   1.000

     PseudoPot. # 3 for Fe read from file:
     /home/aldair1809/Programas/QE/q-e-qe-7.3/pseudo/fe_pbe_v1.5.uspp.F.UPF
     MD5 check sum: a130daea23fe5165f5d574ae7f82ed95
     Pseudo is Ultrasoft + core correction, Zval = 16.0
     Generated by new atomic code, or converted to UPF format
     Using radial grid of  861 points,  6 beta functions with:
                l(1) =   0
                l(2) =   0
                l(3) =   1
                l(4) =   1
                l(5) =   2
                l(6) =   2
     Q(r) pseudized with  8 coefficients,  rinner =    1.000   1.000   1.000
                                                       1.000   1.000

     PseudoPot. # 4 for Fe read from file:
     /home/aldair1809/Programas/QE/q-e-qe-7.3/pseudo/fe_pbe_v1.5.uspp.F.UPF
     MD5 check sum: a130daea23fe5165f5d574ae7f82ed95
     Pseudo is Ultrasoft + core correction, Zval = 16.0
     Generated by new atomic code, or converted to UPF format
     Using radial grid of  861 points,  6 beta functions with:
                l(1) =   0
                l(2) =   0
                l(3) =   1
                l(4) =   1
                l(5) =   2
                l(6) =   2
     Q(r) pseudized with  8 coefficients,  rinner =    1.000   1.000   1.000
                                                       1.000   1.000

     atomic species   valence    mass     pseudopotential
        O              6.00    15.99940     O ( 1.00)
        Bi            15.00   208.98040     Bi( 1.00)
        Fe1           16.00    55.84500     Fe( 1.00)
        Fe2           16.00    55.84500     Fe( 1.00)

     Starting magnetic structure
     atomic species   magnetization
        O            0.000
        Bi           0.000
        Fe1         -0.800
        Fe2          0.800

      3 Sym. Ops. (no inversion) found

                                    s                        frac. trans.

      isym =  1     identity

 cryst.   s( 1) = (     1          0          0      )
                  (     0          1          0      )
                  (     0          0          1      )

 cart.    s( 1) = (  1.0000000 -0.0000000  0.0000000 )
                  (  0.0000000  1.0000000  0.0000000 )
                  (  0.0000000  0.0000000  1.0000000 )

      isym =  2     120 deg rotation - cryst. axis [0,0,1]

[...]

      isym =  3     120 deg rotation - cryst. axis [0,0,-1]

 cryst.   s( 3) = (    -1         -1          0      )
                  (     1          0          0      )
                  (     0          0          1      )

 cart.    s( 3) = ( -0.5000000  0.8660254  0.0000000 )
                  ( -0.8660254 -0.5000000  0.0000000 )
                  (  0.0000000  0.0000000  1.0000000 )

   Cartesian axes

     site n.     atom                  positions (alat units)
         1           Fe1 tau(   1) = (   0.0000000   0.0000000   1.9384582  )
         2           Fe1 tau(   2) = (  -0.0000005   0.5773506   2.3615556  )
         3           Fe1 tau(   3) = (   0.5000005   0.2886748   1.5200787  )
         4           Fe2 tau(   4) = (   0.5000005   0.2886748   0.2722626  )
         5           Fe2 tau(   5) = (   0.0000000   0.0000000   0.6907071  )
         6           Fe2 tau(   6) = (  -0.0000005   0.5773506   1.1137452  )
         7           Bi  tau(   7) = (   0.5000005   0.2886748   2.0843143  )
         8           Bi  tau(   8) = (  -0.0000005   0.5773506   1.6713980  )
         9           Bi  tau(   9) = (  -0.0000005   0.5773506   0.4235448  )
        10           Bi  tau(  10) = (   0.0000000   0.0000000   0.0002821  )
        11           Bi  tau(  11) = (   0.0000000   0.0000000   1.2481025  )
        12           Bi  tau(  12) = (   0.5000005   0.2886748   0.8364865  )
        13           O   tau(  13) = (  -0.3105904   0.6551932   2.2011299  )
        14           O   tau(  14) = (   0.0878817   0.2694488   2.2011299  )
        15           O   tau(  15) = (   0.2227102   0.8074080   2.2011299  )
        16           O   tau(  16) = (   0.4087504   0.5589755   1.7846473  )
        17           O   tau(  17) = (   0.3115373   0.0745013   1.7846473  )
        18           O   tau(  18) = (   0.7797108   0.2325494   1.7846473  )
        19           O   tau(  19) = (   0.6884743   0.0745026   0.5368244  )
        20           O   tau(  20) = (   0.5912412   0.5589858   0.5368244  )
        21           O   tau(  21) = (   0.2202830   0.2325379   0.5368244  )
        22           O   tau(  22) = (  -0.0823010   0.8482993   0.1166193  )
        23           O   tau(  23) = (  -0.1934983   0.3706010   0.1166193  )
        24           O   tau(  24) = (   0.2757993   0.5131505   0.1166193  )
        25           O   tau(  25) = (   0.1934855   0.3705936   1.3644430  )
        26           O   tau(  26) = (   0.0823138   0.8482919   1.3644430  )
        27           O   tau(  27) = (  -0.2757993   0.5131653   1.3644430  )
        28           O   tau(  28) = (  -0.0878870   0.2694458   0.9533686  )
        29           O   tau(  29) = (   0.3105971   0.6551893   0.9533686  )
        30           O   tau(  30) = (  -0.2227086   0.8074149   0.9533686  )

   Crystallographic axes

     site n.     atom                  positions (cryst. coord.)
         1           Fe1 tau(   1) = (  0.0000000  0.0000000  0.7767652  )
         2           Fe1 tau(   2) = (  0.3333330  0.6666670  0.9463058  )
         3           Fe1 tau(   3) = (  0.6666670  0.3333330  0.6091152  )
         4           Fe2 tau(   4) = (  0.6666670  0.3333330  0.1090991  )
         5           Fe2 tau(   5) = (  0.0000000  0.0000000  0.2767753  )
         6           Fe2 tau(   6) = (  0.3333330  0.6666670  0.4462921  )
         7           Bi  tau(   7) = (  0.6666670  0.3333330  0.8352117  )
         8           Bi  tau(   8) = (  0.3333330  0.6666670  0.6697508  )
         9           Bi  tau(   9) = (  0.3333330  0.6666670  0.1697199  )
        10           Bi  tau(  10) = (  0.0000000  0.0000000  0.0001130  )
        11           Bi  tau(  11) = (  0.0000000  0.0000000  0.5001308  )
        12           Bi  tau(  12) = (  0.6666670  0.3333330  0.3351910  )
        13           O   tau(  13) = (  0.0676856  0.7565520  0.8820212  )
        14           O   tau(  14) = (  0.2434480  0.3111326  0.8820212  )
        15           O   tau(  15) = (  0.6888674  0.9323144  0.8820212  )
        16           O   tau(  16) = (  0.7314750  0.6454493  0.7151312  )
        17           O   tau(  17) = (  0.3545507  0.0860267  0.7151312  )
        18           O   tau(  18) = (  0.9139733  0.2685250  0.7151312  )
        19           O   tau(  19) = (  0.7314884  0.0860282  0.2151125  )
        20           O   tau(  20) = (  0.9139718  0.6454612  0.2151125  )
        21           O   tau(  21) = (  0.3545388  0.2685116  0.2151125  )
        22           O   tau(  22) = (  0.4074649  0.9795317  0.0467309  )
        23           O   tau(  23) = (  0.0204683  0.4279331  0.0467309  )
        24           O   tau(  24) = (  0.5720669  0.5925351  0.0467309  )
        25           O   tau(  25) = (  0.4074478  0.4279246  0.5467499  )
        26           O   tau(  26) = (  0.5720754  0.9795232  0.5467499  )
        27           O   tau(  27) = (  0.0204768  0.5925522  0.5467499  )
        28           O   tau(  28) = (  0.0676775  0.3111292  0.3820271  )
        29           O   tau(  29) = (  0.6888708  0.7565474  0.3820271  )
        30           O   tau(  30) = (  0.2434526  0.9323225  0.3820271  )

     number of k points=     2  Gaussian smearing, width (Ry)=  0.0100
                       cart. coord. in units 2pi/alat
        k(    1) = (   0.0000000   0.0000000   0.0000000), wk =   0.2500000
        k(    2) = (   0.0000000  -0.5773503   0.0000000), wk =   0.7500000

                       cryst. coord.
        k(    1) = (   0.0000000   0.0000000   0.0000000), wk =   0.2500000
        k(    2) = (   0.0000000  -0.5000000   0.0000000), wk =   0.7500000

     Check: negative core charge=   -0.004312
     Generating pointlists ...
     new r_m :   0.1458 (alat units)  1.5374 (a.u.) for type    1
     new r_m :   0.1687 (alat units)  1.7788 (a.u.) for type    2
     new r_m :   0.1458 (alat units)  1.5374 (a.u.) for type    3
     new r_m :   0.1458 (alat units)  1.5374 (a.u.) for type    4

     Initial potential from superposition of free atoms

     starting charge  281.99969, renormalised to  294.00000

     negative rho (up, down):  4.138E-01 4.139E-01
     Starting wfcs are  204 randomized atomic wfcs

     Self-consistent Calculation

     iteration #  1     ecut=    12.00 Ry     beta= 0.20
     CG style diagonalization
     ethr =  1.00E-02,  avg # of iterations =  3.8

     negative rho (up, down):  2.211E-01 2.210E-01

     total energy              =   -3068.09864054 Ry
     estimated scf accuracy    <     179.50879668 Ry

     total magnetization       =    -0.17 Bohr mag/cell
     absolute magnetization    =     9.64 Bohr mag/cell

[...]

     iteration # 12     ecut=    12.00 Ry     beta= 0.20
     CG style diagonalization
     c_bands:  1 eigenvalues not converged
     ethr =  5.66E-05,  avg # of iterations =  3.1

[...]

     total energy              =   -3075.21922052 Ry
     estimated scf accuracy    <       0.00201518 Ry

[...]

     iteration # 20     ecut=    12.00 Ry     beta= 0.20
     CG style diagonalization
     ethr =  4.60E-07,  avg # of iterations =  3.0

     negative rho (up, down):  1.457E-01 1.457E-01

     Magnetic moment per site:
     atom:    1    charge:   12.8122    magn:   -0.0426    constr:    0.0000
     atom:    2    charge:   12.8047    magn:   -0.1062    constr:    0.0000
     atom:    3    charge:   12.8067    magn:   -0.0972    constr:    0.0000
     atom:    4    charge:   12.8180    magn:    0.1053    constr:    0.0000
     atom:    5    charge:   12.8143    magn:    0.0596    constr:    0.0000
     atom:    6    charge:   12.8052    magn:    0.1064    constr:    0.0000
     atom:    7    charge:   10.5027    magn:   -0.0004    constr:    0.0000
     atom:    8    charge:   10.4934    magn:   -0.0002    constr:    0.0000
     atom:    9    charge:   10.4940    magn:    0.0005    constr:    0.0000
     atom:   10    charge:   10.5026    magn:   -0.0014    constr:    0.0000
     atom:   11    charge:   10.5023    magn:    0.0017    constr:    0.0000
     atom:   12    charge:   10.5028    magn:    0.0006    constr:    0.0000
     atom:   13    charge:    5.2229    magn:   -0.0003    constr:    0.0000
     atom:   14    charge:    5.2229    magn:   -0.0003    constr:    0.0000
     atom:   15    charge:    5.2229    magn:   -0.0003    constr:    0.0000
     atom:   16    charge:    5.2186    magn:   -0.0002    constr:    0.0000
     atom:   17    charge:    5.2186    magn:   -0.0002    constr:    0.0000
     atom:   18    charge:    5.2186    magn:   -0.0002    constr:    0.0000
     atom:   19    charge:    5.2196    magn:    0.0011    constr:    0.0000
     atom:   20    charge:    5.2196    magn:    0.0011    constr:    0.0000
     atom:   21    charge:    5.2196    magn:    0.0011    constr:    0.0000
     atom:   22    charge:    5.2196    magn:    0.0055    constr:    0.0000
     atom:   23    charge:    5.2196    magn:    0.0055    constr:    0.0000
     atom:   24    charge:    5.2196    magn:    0.0055    constr:    0.0000
     atom:   25    charge:    5.2179    magn:   -0.0043    constr:    0.0000
     atom:   26    charge:    5.2179    magn:   -0.0043    constr:    0.0000
     atom:   27    charge:    5.2179    magn:   -0.0043    constr:    0.0000
     atom:   28    charge:    5.2226    magn:    0.0007    constr:    0.0000
     atom:   29    charge:    5.2226    magn:    0.0007    constr:    0.0000
     atom:   30    charge:    5.2226    magn:    0.0007    constr:    0.0000

     End of self-consistent calculation

 ------ SPIN UP ------------

          k = 0.0000 0.0000 0.0000 (  1799 PWs)   bands (ev):

  -101.0107-100.9688-100.8883-100.4576-100.3337-100.2584 -54.7672 -54.4037
   -54.1276 -54.1276 -53.4788 -53.4788 -53.3393 -53.3393 -53.1897 -52.8791
   -52.4685 -52.4685 -52.4375 -52.3823 -52.1750 -52.1750 -51.8651 -51.8651
   -11.2465 -11.2465 -11.1849 -11.1430 -11.1430 -11.1234 -11.1234 -11.1154
   -11.0844 -10.9484 -10.9458 -10.9458 -10.9182 -10.8938 -10.8938 -10.8881
   -10.8097 -10.8096 -10.5144 -10.5144 -10.4952 -10.4952 -10.4846 -10.4846
   -10.4465 -10.4465 -10.4244 -10.4244 -10.3826 -10.3826 -10.3550 -10.2987
   -10.2928 -10.0101  -9.9778  -9.9281  -9.9280  -9.8183  -9.7673  -9.7672
    -9.6569  -9.6569  -9.4601  -9.4601  -9.3708  -9.3708  -9.2807  -9.2807
     1.5103   1.6931   1.7529   2.3046   2.4251   3.0542   4.8571   5.2769
     5.2769   5.3330   5.4338   5.4813   5.4814   5.5828   5.5829   5.7116
     5.7116   5.9234   5.9234   5.9783   5.9783   6.4347   6.4347   6.6209
     6.6313   6.7231   6.8650   6.9132   6.9132   7.0635   7.0635   7.8569
     8.0262   8.2343   8.2343   8.4170   8.4170   8.6525   8.6525   8.8435
     8.9805   9.3590   9.3591   9.4858   9.4858  10.0749  10.0797  10.0797
    10.1761  10.1761  10.2021  10.2021  10.3869  10.4903  10.5868  10.6132
    10.6208  10.7481  10.8698  10.8698  11.0677  11.0677  11.2489  11.2489
    11.3237  11.3238  11.9680  11.9680  12.1631  12.1869  12.2349  12.3122
    12.3122  12.3961  12.3961  12.5317  12.5317  13.0064  13.1339  13.2849
    15.3212  15.3213  15.6607  15.6607  15.8020  15.8020  15.9089  15.9570
    16.0597  16.0808  16.0808  16.1333  16.8857  16.8857  17.4705  17.4705
    17.7588  17.7993  17.7993  17.8499  17.8925  17.8925  18.4004  18.6676
    18.6676  18.7644  18.7644  19.1734  19.1734  20.1557  20.2496  20.5608
    21.6526  21.6526  21.6962  21.7875  22.8344  22.8345  22.9484  22.9484
    23.0092  23.0092  24.0744  24.2846  24.2847  24.4095  24.4098  24.5520

     occupation numbers
     1.0000   1.0000   1.0000   1.0000   1.0000   1.0000   1.0000   1.0000
     1.0000   1.0000   1.0000   1.0000   1.0000   1.0000   1.0000   1.0000
     1.0000   1.0000   1.0000   1.0000   1.0000   1.0000   1.0000   1.0000
     1.0000   1.0000   1.0000   1.0000   1.0000   1.0000   1.0000   1.0000
     1.0000   1.0000   1.0000   1.0000   1.0000   1.0000   1.0000   1.0000
     1.0000   1.0000   1.0000   1.0000   1.0000   1.0000   1.0000   1.0000
     1.0000   1.0000   1.0000   1.0000   1.0000   1.0000   1.0000   1.0000
     1.0000   1.0000   1.0000   1.0000   1.0000   1.0000   1.0000   1.0000
     1.0000   1.0000   1.0000   1.0000   1.0000   1.0000   1.0000   1.0000
     1.0000   1.0000   1.0000   1.0000   1.0000   1.0000   1.0000   1.0000
     1.0000   1.0000   1.0000   1.0000   1.0000   1.0000   1.0000   1.0000
     1.0000   1.0000   1.0000   1.0000   1.0000   1.0000   1.0000   1.0000
     1.0000   1.0000   1.0000   1.0000   1.0000   1.0000   1.0000   1.0000
     1.0000   1.0000   1.0000   1.0000   1.0000   1.0000   1.0000   1.0000
     1.0000   1.0000   1.0000   1.0000   1.0000   1.0000   1.0000   1.0000
     1.0000   1.0000   1.0000   1.0000   1.0000   1.0000   1.0000   1.0000
     1.0000   1.0000   1.0000   1.0000   1.0000   1.0000   1.0000   1.0000
     1.0000   1.0000   1.0000   1.0000   1.0000   1.0000   1.0000   0.9991
     0.9991   0.9877   0.9877   0.7995   0.7994   0.0000   0.0000   0.0000
     0.0000   0.0000   0.0000   0.0000   0.0000   0.0000   0.0000   0.0000
     0.0000   0.0000   0.0000   0.0000   0.0000   0.0000   0.0000   0.0000
     0.0000   0.0000   0.0000   0.0000   0.0000   0.0000   0.0000   0.0000
     0.0000   0.0000   0.0000   0.0000   0.0000   0.0000   0.0000   0.0000
     0.0000   0.0000   0.0000   0.0000   0.0000   0.0000   0.0000   0.0000
     0.0000   0.0000   0.0000   0.0000   0.0000   0.0000   0.0000   0.0000

[...]

 ------ SPIN DOWN ----------

[...]

          k = 0.0000-0.5774 0.0000 (  1796 PWs)   bands (ev):

  -100.8049-100.6368-100.6026-100.5301-100.4470-100.3183 -53.8925 -53.7988
   -53.7030 -53.6363 -53.5076 -53.1913 -53.1033 -53.0924 -53.0348 -53.0114
   -52.9294 -52.8658 -52.8629 -52.6169 -52.4900 -52.0549 -52.0206 -51.7115
   -11.1995 -11.1979 -11.1799 -11.1259 -11.1101 -11.1036 -11.0911 -11.0811
   -11.0706 -11.0033 -10.9604 -10.9080 -10.8978 -10.8782 -10.8693 -10.8510
   -10.8463 -10.7539 -10.5018 -10.4913 -10.4825 -10.4749 -10.4676 -10.4619
   -10.4425 -10.4156 -10.4146 -10.3979 -10.3841 -10.3711 -10.3254 -10.2956
   -10.1979 -10.1482 -10.1437 -10.0214  -9.9604  -9.8309  -9.8158  -9.7098
    -9.6426  -9.5724  -9.5016  -9.4481  -9.4357  -9.3679  -9.3264  -9.2488
     1.5764   1.7300   1.7393   1.9280   1.9721   2.1238   4.7823   5.0361
     5.0734   5.1762   5.4199   5.5213   5.5839   5.6363   5.7385   6.0708
     6.1384   6.5085   6.5417   6.5805   6.6177   6.6437   6.6622   6.9648
     7.1426   7.4333   7.4430   7.4512   7.5628   7.9301   7.9432   7.9518
     8.0771   8.1962   8.2095   8.2283   8.6594   8.7514   8.7920   8.9213
     9.0526   9.0962   9.1149   9.2949   9.3575   9.6065   9.7109   9.7187
     9.7358   9.7619   9.9110   9.9529   9.9965  10.1094  10.3254  10.6147
    10.6994  10.7290  10.7475  10.9412  11.0950  11.1486  11.2096  11.2822
    11.3172  11.3384  11.5134  11.5357  11.6706  11.8488  12.0044  12.2178
    12.4592  12.5397  12.6077  12.6883  13.3271  13.4870  13.7993  13.9575
    14.9146  15.1907  15.2045  15.2266  15.3378  15.7705  15.7835  15.9185
    15.9964  16.1430  16.3806  16.5168  16.6586  16.7912  16.8099  16.8472
    17.0819  17.1722  17.2504  17.9189  18.0694  18.1031  18.1959  18.2597
    18.5108  18.5193  18.5750  18.5826  20.8645  20.9656  21.4193  21.4358
    21.5065  22.2722  22.5924  22.9674  23.0164  23.2928  23.3695  23.5026
    23.5464  23.5904  24.2410  24.3084  24.4225  24.4595  24.5223  24.6291

     occupation numbers
     1.0000   1.0000   1.0000   1.0000   1.0000   1.0000   1.0000   1.0000
     1.0000   1.0000   1.0000   1.0000   1.0000   1.0000   1.0000   1.0000
     1.0000   1.0000   1.0000   1.0000   1.0000   1.0000   1.0000   1.0000
     1.0000   1.0000   1.0000   1.0000   1.0000   1.0000   1.0000   1.0000
     1.0000   1.0000   1.0000   1.0000   1.0000   1.0000   1.0000   1.0000
     1.0000   1.0000   1.0000   1.0000   1.0000   1.0000   1.0000   1.0000
     1.0000   1.0000   1.0000   1.0000   1.0000   1.0000   1.0000   1.0000
     1.0000   1.0000   1.0000   1.0000   1.0000   1.0000   1.0000   1.0000
     1.0000   1.0000   1.0000   1.0000   1.0000   1.0000   1.0000   1.0000
     1.0000   1.0000   1.0000   1.0000   1.0000   1.0000   1.0000   1.0000
     1.0000   1.0000   1.0000   1.0000   1.0000   1.0000   1.0000   1.0000
     1.0000   1.0000   1.0000   1.0000   1.0000   1.0000   1.0000   1.0000
     1.0000   1.0000   1.0000   1.0000   1.0000   1.0000   1.0000   1.0000
     1.0000   1.0000   1.0000   1.0000   1.0000   1.0000   1.0000   1.0000
     1.0000   1.0000   1.0000   1.0000   1.0000   1.0000   1.0000   1.0000
     1.0000   1.0000   1.0000   1.0000   1.0000   1.0000   1.0000   1.0000
     1.0000   1.0000   1.0000   1.0000   1.0000   1.0000   1.0000   1.0000
     1.0000   1.0000   1.0000   1.0000   1.0000   1.0000   1.0000   1.0000
     0.9445   0.7755   0.5198   0.2154   0.0000   0.0000   0.0000   0.0000
     0.0000   0.0000   0.0000   0.0000   0.0000   0.0000   0.0000   0.0000
     0.0000   0.0000   0.0000   0.0000   0.0000   0.0000   0.0000   0.0000
     0.0000   0.0000   0.0000   0.0000   0.0000   0.0000   0.0000   0.0000
     0.0000   0.0000   0.0000   0.0000   0.0000   0.0000   0.0000   0.0000
     0.0000   0.0000   0.0000   0.0000   0.0000   0.0000   0.0000   0.0000
     0.0000   0.0000   0.0000   0.0000   0.0000   0.0000   0.0000   0.0000

     the Fermi energy is    12.6125 ev

!    total energy              =   -3075.21973315 Ry
     estimated scf accuracy    <       0.00062333 Ry
     smearing contrib. (-TS)   =      -0.01388687 Ry
     internal energy E=F+TS    =   -3075.20584628 Ry

     The total energy is F=E-TS. E is the sum of the following terms:
     one-electron contribution =   -1050.76747365 Ry
     hartree contribution      =     666.19069008 Ry
     xc contribution           =    -662.97992100 Ry
     ewald contribution        =   -2027.64914171 Ry

     total magnetization       =     0.04 Bohr mag/cell
     absolute magnetization    =     0.86 Bohr mag/cell

     convergence has been achieved in  20 iterations

     Writing output data file /home/aldair1809/Documentos/QE/4BFO/UHUBBARD/temp/pseudo_o_pbe_v1.2.uspp.F.UPF_ecutwfc_12.in/bifeo3-scf.save/

     General routines

     Parallel routines

   This run was terminated on:  21: 6:25  28Sep2024

   JOB DONE.