     Program PWSCF v.6.7MaX starts on  6Nov2024 at 17:59: 2

     R & G space division:  proc/nbgrp/npool/nimage =       6
     Waiting for input...
     Reading input from standard input

     Current dimensions of program PWSCF are:
     Max number of different atomic species (ntypx) = 10
     Max number of k-points (npk) =  40000
     Max angular momentum in pseudopotentials (lmaxx) =  3

     bravais-lattice index     =            4
     lattice parameter (alat)  =      10.6119  a.u.
     unit-cell volume          =    2595.2065 (a.u.)^3
     number of atoms/cell      =           30
     number of atomic types    =            4
     number of electrons       =       294.00 (up: 147.00, down: 147.00)
     number of Kohn-Sham states=          200
     kinetic-energy cutoff     =      30.0000  Ry
     charge density cutoff     =     240.0000  Ry
     scf convergence threshold =      1.0E-05
     mixing beta               =       0.2000
     number of iterations used =            8  plain     mixing
     energy convergence thresh.=      1.0E-04
     force convergence thresh. =      1.0E-03
     press convergence thresh. =      5.0E-01
     Exchange-correlation=  SLA  PW   PBX  PBC
                           (   1   4   3   4   0   0   0)
     nstep                     =           50

     celldm(1)=  10.611940  celldm(2)=   0.000000  celldm(3)=   2.507593
     celldm(4)=   0.000000  celldm(5)=   0.000000  celldm(6)=   0.000000

     crystal axes: (cart. coord. in units of alat)
               a(1) = (   1.000000   0.000000   0.000000 )
               a(2) = (  -0.500000   0.866025   0.000000 )
               a(3) = (   0.000000   0.000000   2.507593 )

     reciprocal axes: (cart. coord. in units 2 pi/alat)
               b(1) = (  1.000000  0.577350 -0.000000 )
               b(2) = (  0.000000  1.154701  0.000000 )
               b(3) = (  0.000000 -0.000000  0.398789 )

     PseudoPot. # 1 for O  read from file:
     /home/aldair1809/Programas/QE/q-e-qe-7.3/pseudo/o_pbe_v1.2.uspp.F.UPF
     MD5 check sum: 734c27235a0248c51dbae37a1fbe46ec
     Pseudo is Ultrasoft + core correction, Zval =  6.0
     Generated by new atomic code, or converted to UPF format
     Using radial grid of  737 points,  5 beta functions with:
                l(1) =   0
                l(2) =   0
                l(3) =   1
                l(4) =   1
                l(5) =   2
     Q(r) pseudized with  8 coefficients,  rinner =    0.900   0.900   0.900
                                                       0.900   0.900

     PseudoPot. # 2 for Bi read from file:
     /home/aldair1809/Programas/QE/q-e-qe-7.3/pseudo/bi_pbe_v1.uspp.F.UPF
     MD5 check sum: cceb9f28ec65b6d7ff33140f5b0b1758
     Pseudo is Ultrasoft + core correction, Zval = 15.0
     Generated by new atomic code, or converted to UPF format
     Using radial grid of  899 points,  6 beta functions with:
                l(1) =   0
                l(2) =   0
                l(3) =   1
                l(4) =   1
                l(5) =   2
                l(6) =   2
     Q(r) pseudized with  6 coefficients,  rinner =    1.000   1.000   1.000
                                                       1.000   1.000

     PseudoPot. # 3 for Fe read from file:
     /home/aldair1809/Programas/QE/q-e-qe-7.3/pseudo/fe_pbe_v1.5.uspp.F.UPF
     MD5 check sum: a130daea23fe5165f5d574ae7f82ed95
     Pseudo is Ultrasoft + core correction, Zval = 16.0
     Generated by new atomic code, or converted to UPF format
     Using radial grid of  861 points,  6 beta functions with:
                l(1) =   0
                l(2) =   0
                l(3) =   1
                l(4) =   1
                l(5) =   2
                l(6) =   2
     Q(r) pseudized with  8 coefficients,  rinner =    1.000   1.000   1.000
                                                       1.000   1.000

     PseudoPot. # 4 for Fe read from file:
     /home/aldair1809/Programas/QE/q-e-qe-7.3/pseudo/fe_pbe_v1.5.uspp.F.UPF
     MD5 check sum: a130daea23fe5165f5d574ae7f82ed95
     Pseudo is Ultrasoft + core correction, Zval = 16.0
     Generated by new atomic code, or converted to UPF format
     Using radial grid of  861 points,  6 beta functions with:
                l(1) =   0
                l(2) =   0
                l(3) =   1
                l(4) =   1
                l(5) =   2
                l(6) =   2
     Q(r) pseudized with  8 coefficients,  rinner =    1.000   1.000   1.000
                                                       1.000   1.000

     atomic species   valence    mass     pseudopotential
        O              6.00    15.99940     O ( 1.00)
        Bi            15.00   208.98040     Bi( 1.00)
        Fe1           16.00    55.84500     Fe( 1.00)
        Fe2           16.00    55.84500     Fe( 1.00)

     Starting magnetic structure
     atomic species   magnetization
        O            0.000
        Bi           0.000
        Fe1          0.800
        Fe2         -0.800

      3 Sym. Ops. (no inversion) found

                                    s                        frac. trans.

      isym =  1     identity

 cryst.   s( 1) = (     1          0          0      )
                  (     0          1          0      )
                  (     0          0          1      )

 cart.    s( 1) = (  1.0000000  0.0000000  0.0000000 )
                  (  0.0000000  1.0000000  0.0000000 )
                  (  0.0000000  0.0000000  1.0000000 )

      isym =  2     120 deg rotation - cryst. axis [0,0,1]

[...]

      isym =  3     120 deg rotation - cryst. axis [0,0,-1]

 cryst.   s( 3) = (    -1         -1          0      )
                  (     1          0          0      )
                  (     0          0          1      )

 cart.    s( 3) = ( -0.5000000  0.8660254  0.0000000 )
                  ( -0.8660254 -0.5000000  0.0000000 )
                  (  0.0000000  0.0000000  1.0000000 )

     point group C_3 (3)
     there are  3 classes
     the character table:

       E     C3    C3^2
A      1.00  1.00  1.00
E      1.00 -0.50 -0.50
E*     1.00 -0.50 -0.50
     imaginary part
A      0.00  0.00  0.00
E      0.00  0.87 -0.87
E*     0.00 -0.87  0.87

     the symmetry operations in each class and the name of the first element:

     E        1
          identity
     C3       2
          120 deg rotation - cryst. axis [0,0,1]
     C3^2     3
          120 deg rotation - cryst. axis [0,0,-1]

   Cartesian axes

     site n.     atom                  positions (alat units)
         1           Fe2 tau(   1) = (   0.0000000   0.0000000   1.9478107  )
         2           Fe1 tau(   2) = (  -0.0000005   0.5773506   2.3729494  )
         3           Fe1 tau(   3) = (   0.5000005   0.2886748   1.5274126  )
         4           Fe2 tau(   4) = (   0.5000005   0.2886748   0.2735761  )
         5           Fe1 tau(   5) = (   0.0000000   0.0000000   0.6940396  )
         6           Fe2 tau(   6) = (  -0.0000005   0.5773506   1.1191187  )
         7           Bi  tau(   7) = (   0.5000005   0.2886748   2.0943705  )
         8           Bi  tau(   8) = (  -0.0000005   0.5773506   1.6794620  )
         9           Bi  tau(   9) = (  -0.0000005   0.5773506   0.4255883  )
        10           Bi  tau(  10) = (   0.0000000   0.0000000   0.0002835  )
        11           Bi  tau(  11) = (   0.0000000   0.0000000   1.2541243  )
        12           Bi  tau(  12) = (   0.5000005   0.2886748   0.8405223  )
        13           O   tau(  13) = (  -0.3105904   0.6551932   2.2117497  )
        14           O   tau(  14) = (   0.0878817   0.2694488   2.2117497  )
        15           O   tau(  15) = (   0.2227102   0.8074080   2.2117497  )
        16           O   tau(  16) = (   0.4087504   0.5589755   1.7932577  )
        17           O   tau(  17) = (   0.3115373   0.0745013   1.7932577  )
        18           O   tau(  18) = (   0.7797108   0.2325494   1.7932577  )
        19           O   tau(  19) = (   0.6884743   0.0745026   0.5394144  )
        20           O   tau(  20) = (   0.5912412   0.5589858   0.5394144  )
        21           O   tau(  21) = (   0.2202830   0.2325379   0.5394144  )
        22           O   tau(  22) = (  -0.0823010   0.8482993   0.1171819  )
        23           O   tau(  23) = (  -0.1934983   0.3706010   0.1171819  )
        24           O   tau(  24) = (   0.2757993   0.5131505   0.1171819  )
        25           O   tau(  25) = (   0.1934855   0.3705936   1.3710260  )
        26           O   tau(  26) = (   0.0823138   0.8482919   1.3710260  )
        27           O   tau(  27) = (  -0.2757993   0.5131653   1.3710260  )
        28           O   tau(  28) = (  -0.0878870   0.2694458   0.9579683  )
        29           O   tau(  29) = (   0.3105971   0.6551893   0.9579683  )
        30           O   tau(  30) = (  -0.2227086   0.8074149   0.9579683  )

   Crystallographic axes

     site n.     atom                  positions (cryst. coord.)
         1           Fe2 tau(   1) = (  0.0000000  0.0000000  0.7767652  )
         2           Fe1 tau(   2) = (  0.3333330  0.6666670  0.9463058  )
         3           Fe1 tau(   3) = (  0.6666670  0.3333330  0.6091152  )
         4           Fe2 tau(   4) = (  0.6666670  0.3333330  0.1090991  )
         5           Fe1 tau(   5) = (  0.0000000  0.0000000  0.2767753  )
         6           Fe2 tau(   6) = (  0.3333330  0.6666670  0.4462921  )
         7           Bi  tau(   7) = (  0.6666670  0.3333330  0.8352117  )
         8           Bi  tau(   8) = (  0.3333330  0.6666670  0.6697508  )
         9           Bi  tau(   9) = (  0.3333330  0.6666670  0.1697199  )
        10           Bi  tau(  10) = (  0.0000000  0.0000000  0.0001130  )
        11           Bi  tau(  11) = (  0.0000000  0.0000000  0.5001308  )
        12           Bi  tau(  12) = (  0.6666670  0.3333330  0.3351910  )
        13           O   tau(  13) = (  0.0676856  0.7565520  0.8820212  )
        14           O   tau(  14) = (  0.2434480  0.3111326  0.8820212  )
        15           O   tau(  15) = (  0.6888674  0.9323144  0.8820212  )
        16           O   tau(  16) = (  0.7314750  0.6454493  0.7151312  )
        17           O   tau(  17) = (  0.3545507  0.0860267  0.7151312  )
        18           O   tau(  18) = (  0.9139733  0.2685250  0.7151312  )
        19           O   tau(  19) = (  0.7314884  0.0860282  0.2151125  )
        20           O   tau(  20) = (  0.9139718  0.6454612  0.2151125  )
        21           O   tau(  21) = (  0.3545388  0.2685116  0.2151125  )
        22           O   tau(  22) = (  0.4074649  0.9795317  0.0467309  )
        23           O   tau(  23) = (  0.0204683  0.4279331  0.0467309  )
        24           O   tau(  24) = (  0.5720669  0.5925351  0.0467309  )
        25           O   tau(  25) = (  0.4074478  0.4279246  0.5467499  )
        26           O   tau(  26) = (  0.5720754  0.9795232  0.5467499  )
        27           O   tau(  27) = (  0.0204768  0.5925522  0.5467499  )
        28           O   tau(  28) = (  0.0676776  0.3111292  0.3820271  )
        29           O   tau(  29) = (  0.6888708  0.7565474  0.3820271  )
        30           O   tau(  30) = (  0.2434526  0.9323225  0.3820271  )

[...]
     atom    5 type  3   force =    -0.00000000    0.00000000    4.30010800
     atom    6 type  4   force =     0.00145994   -0.00084290    4.26671005
     atom    7 type  2   force =    -0.00035608    0.00020558   -7.94485137
     atom    8 type  2   force =     0.00035611   -0.00020560   -7.99235937
     atom    9 type  2   force =     0.00035611   -0.00020560   -7.98473515
     atom   10 type  2   force =     0.00000000   -0.00000000   -8.01047452
     atom   11 type  2   force =    -0.00000000   -0.00000000   -8.00921950
     atom   12 type  2   force =    -0.00035608    0.00020558   -7.93677116
     atom   13 type  1   force =     0.58601685    1.73796119    1.13750647
     atom   14 type  1   force =    -1.79832832   -0.36120445    1.13744805
     atom   15 type  1   force =     1.21177274   -1.37644571    1.13746003
     atom   16 type  1   force =     1.80401347   -0.34884951    1.13226941
     atom   17 type  1   force =    -0.59969285    1.73639478    1.13228143
     atom   18 type  1   force =    -1.20378187   -1.38785632    1.13222294
     atom   19 type  1   force =     0.59840887    1.73771818    1.13627535
     atom   20 type  1   force =    -1.80391117   -0.35089244    1.13633384
     atom   21 type  1   force =     1.20604105   -1.38713680    1.13632181
     atom   22 type  1   force =     1.79746181   -0.35878253    1.13289216
     atom   23 type  1   force =    -0.58801612    1.73603885    1.13289216
     atom   24 type  1   force =    -1.20944569   -1.37725632    1.13289216
     atom   25 type  1   force =     0.58877793    1.73534690    1.13214347
     atom   26 type  1   force =    -1.79724347   -0.35777680    1.13214347
     atom   27 type  1   force =     1.20846554   -1.37757010    1.13214347
     atom   28 type  1   force =     1.79857496   -0.36145594    1.14014772
     atom   29 type  1   force =    -0.58645881    1.73869098    1.14013574
     atom   30 type  1   force =    -1.21265487   -1.37692401    1.14019416
     The core correction contribution to forces
     atom    1 type  4   force =    -0.00000000    0.00000000   -0.00351485
     atom    2 type  3   force =     0.00000121   -0.00000070   -0.00348485
     atom    3 type  3   force =    -0.00000121    0.00000070   -0.00349451
     atom    4 type  4   force =    -0.00000121    0.00000070   -0.00352230
     atom    5 type  3   force =    -0.00000000   -0.00000000   -0.00348302
     atom    6 type  4   force =     0.00000121   -0.00000070   -0.00351865
     atom    7 type  2   force =    -0.00001393    0.00000804    0.01818063
     atom    8 type  2   force =     0.00001393   -0.00000804    0.01815147
     atom    9 type  2   force =     0.00001393   -0.00000804    0.01815946
     atom   10 type  2   force =    -0.00000000    0.00000000    0.01819983
     atom   11 type  2   force =    -0.00000000    0.00000000    0.01820951
     atom   12 type  2   force =    -0.00001393    0.00000804    0.01817138
     atom   13 type  1   force =     0.00000443   -0.00004182   -0.00085822
     atom   14 type  1   force =     0.00003363    0.00002551   -0.00085819
     atom   15 type  1   force =    -0.00003932    0.00001704   -0.00085822
     atom   16 type  1   force =    -0.00003803    0.00002413   -0.00084858
     atom   17 type  1   force =    -0.00000151   -0.00004569   -0.00084862
     atom   18 type  1   force =     0.00004080    0.00002083   -0.00084859
     atom   19 type  1   force =     0.00000253   -0.00004587   -0.00084825
     atom   20 type  1   force =     0.00003882    0.00002437   -0.00084828
     atom   21 type  1   force =    -0.00004010    0.00002077   -0.00084824
     atom   22 type  1   force =    -0.00003544    0.00003211   -0.00086135
     atom   23 type  1   force =    -0.00001009   -0.00004674   -0.00086135
     atom   24 type  1   force =     0.00004553    0.00001463   -0.00086135
     atom   25 type  1   force =     0.00000958   -0.00004653   -0.00086106
     atom   26 type  1   force =     0.00003550    0.00003156   -0.00086106
     atom   27 type  1   force =    -0.00004508    0.00001497   -0.00086106
     atom   28 type  1   force =    -0.00003498    0.00002489   -0.00085723
     atom   29 type  1   force =    -0.00000444   -0.00004204   -0.00085719
     atom   30 type  1   force =     0.00003816    0.00001788   -0.00085722
     The Hubbard contrib.    to forces
     atom    1 type  4   force =     0.00000000    0.00000000    0.00000000
     atom    2 type  3   force =     0.00000000    0.00000000    0.00000000
     atom    3 type  3   force =     0.00000000    0.00000000    0.00000000
     atom    4 type  4   force =     0.00000000    0.00000000    0.00000000
     atom    5 type  3   force =     0.00000000    0.00000000    0.00000000
     atom    6 type  4   force =     0.00000000    0.00000000    0.00000000
     atom    7 type  2   force =     0.00000000    0.00000000    0.00000000
     atom    8 type  2   force =     0.00000000    0.00000000    0.00000000
     atom    9 type  2   force =     0.00000000    0.00000000    0.00000000
     atom   10 type  2   force =     0.00000000    0.00000000    0.00000000
     atom   11 type  2   force =     0.00000000    0.00000000    0.00000000
     atom   12 type  2   force =     0.00000000    0.00000000    0.00000000
     atom   13 type  1   force =     0.00000000    0.00000000    0.00000000
     atom   14 type  1   force =     0.00000000    0.00000000    0.00000000
     atom   15 type  1   force =     0.00000000    0.00000000    0.00000000
     atom   16 type  1   force =     0.00000000    0.00000000    0.00000000
     atom   17 type  1   force =     0.00000000    0.00000000    0.00000000
     atom   18 type  1   force =     0.00000000    0.00000000    0.00000000
     atom   19 type  1   force =     0.00000000    0.00000000    0.00000000
     atom   20 type  1   force =     0.00000000    0.00000000    0.00000000
     atom   21 type  1   force =     0.00000000    0.00000000    0.00000000
     atom   22 type  1   force =     0.00000000    0.00000000    0.00000000
     atom   23 type  1   force =     0.00000000    0.00000000    0.00000000
     atom   24 type  1   force =     0.00000000    0.00000000    0.00000000
     atom   25 type  1   force =     0.00000000    0.00000000    0.00000000
     atom   26 type  1   force =     0.00000000    0.00000000    0.00000000
     atom   27 type  1   force =     0.00000000    0.00000000    0.00000000
     atom   28 type  1   force =     0.00000000    0.00000000    0.00000000
     atom   29 type  1   force =     0.00000000    0.00000000    0.00000000
     atom   30 type  1   force =     0.00000000    0.00000000    0.00000000
     The SCF correction term to forces
     atom    1 type  4   force =     0.00000000   -0.00000000   -0.00017106
     atom    2 type  3   force =    -0.00000003    0.00000002   -0.00009578
     atom    3 type  3   force =     0.00000003   -0.00000002   -0.00030403
     atom    4 type  4   force =     0.00000002   -0.00000001   -0.00028170
     atom    5 type  3   force =     0.00000000   -0.00000000   -0.00019557
     atom    6 type  4   force =    -0.00000003    0.00000002   -0.00012461
     atom    7 type  2   force =     0.00000000   -0.00000000   -0.00003243
     atom    8 type  2   force =    -0.00000001    0.00000000   -0.00010335
     atom    9 type  2   force =    -0.00000001    0.00000000   -0.00011773
     atom   10 type  2   force =    -0.00000000    0.00000000   -0.00005311
     atom   11 type  2   force =    -0.00000000    0.00000000   -0.00008895
     atom   12 type  2   force =     0.00000000   -0.00000000   -0.00008322
     atom   13 type  1   force =     0.00002293    0.00004033    0.00008412
     atom   14 type  1   force =    -0.00004639   -0.00000032    0.00008412
     atom   15 type  1   force =     0.00002347   -0.00004002    0.00008412
     atom   16 type  1   force =     0.00006039   -0.00001661    0.00005967
     atom   17 type  1   force =    -0.00001581    0.00006061    0.00005967
     atom   18 type  1   force =    -0.00004458   -0.00004399    0.00005968
     atom   19 type  1   force =     0.00000585    0.00007202    0.00003650
     atom   20 type  1   force =    -0.00006530   -0.00003094    0.00003650
     atom   21 type  1   force =     0.00005945   -0.00004108    0.00003650
     atom   22 type  1   force =     0.00005702   -0.00000122    0.00007423
     atom   23 type  1   force =    -0.00002746    0.00004998    0.00007423
     atom   24 type  1   force =    -0.00002956   -0.00004877    0.00007423
     atom   25 type  1   force =     0.00000667    0.00005493    0.00005284
     atom   26 type  1   force =    -0.00005091   -0.00002168    0.00005284
     atom   27 type  1   force =     0.00004424   -0.00003325    0.00005284
     atom   28 type  1   force =     0.00004519   -0.00001209    0.00005564
     atom   29 type  1   force =    -0.00001212    0.00004518    0.00005564
     atom   30 type  1   force =    -0.00003307   -0.00003309    0.00005564

     Total force =     0.004115     Total SCF correction =     0.000661
     SCF correction compared to forces is large: reduce conv_thr to get better values

     Computing stress (Cartesian axis) and pressure

     negative rho (up, down):  1.207E-01 1.207E-01
          total   stress  (Ry/bohr**3)                   (kbar)     P=       -1.53
  -0.00000953  -0.00000000   0.00000000           -1.40       -0.00        0.00
   0.00000000  -0.00000953   0.00000000            0.00       -1.40        0.00
   0.00000000   0.00000000  -0.00001217            0.00        0.00       -1.79

     kinetic stress (kbar)  23760.18      0.00      0.00
                                0.00  23760.18     -0.00
                                0.00     -0.00  23749.85

     local   stress (kbar)  -6032.36     -0.00     -0.00
                               -0.00  -6032.36      0.00
                               -0.00      0.00  -2479.43

     nonloc. stress (kbar)  15681.60      0.00      0.00
                                0.00  15681.60      0.00
                                0.00      0.00  15686.45

     hartree stress (kbar)  17137.97      0.00      0.00
                                0.00  17137.97     -0.00
                                0.00     -0.00  15789.08

     exc-cor stress (kbar)   9308.34      0.00      0.00
                                0.00   9308.34     -0.00
                                0.00     -0.00   9303.89

     corecor stress (kbar) -18760.52     -0.00     -0.00
                               -0.00 -18760.52      0.00
                               -0.00      0.00 -18761.39

     ewald   stress (kbar) -41096.62      0.00      0.00
                                0.00 -41096.62     -0.00
                                0.00     -0.00 -43290.24

     hubbard stress (kbar)      0.00      0.00      0.00
                                0.00      0.00      0.00
                                0.00      0.00      0.00

     DFT-D   stress (kbar)      0.00      0.00      0.00
                                0.00      0.00      0.00
                                0.00      0.00      0.00

     XDM     stress (kbar)      0.00      0.00      0.00
                                0.00      0.00      0.00
                                0.00      0.00      0.00

     dft-nl  stress (kbar)      0.00      0.00      0.00
                                0.00      0.00      0.00
                                0.00      0.00      0.00

     TS-vdW  stress (kbar)      0.00      0.00      0.00
                                0.00      0.00      0.00
                                0.00      0.00      0.00

     Energy error            =      5.6E-05
     Gradient error          =      9.2E-04
     Cell gradient error     =      1.2E-05

     number of scf cycles    =  11
     number of bfgs steps    =  10

     enthalpy old            =   -3195.0179705351 Ry
     enthalpy new            =   -3195.0180262853 Ry

     CASE: enthalpy_new < enthalpy_old

     new trust radius        =       0.0042013752 bohr
ibrav =      4
 celldm(1) =     10.43573394
 celldm(3) =      2.45853299
Input lattice vectors:
     0.98339552    -0.00000000     0.00000000
    -0.49169776     0.85164550     0.00000000
     0.00000000     0.00000000     2.41771033
New lattice vectors in INITIAL alat:
     0.98339552     0.00000000     0.00000000
    -0.49169776     0.85164550     0.00000000
     0.00000000     0.00000000     2.41771033
New lattice vectors in NEW alat (for information only):
     1.00000000     0.00000000     0.00000000
    -0.50000000     0.86602540     0.00000000
     0.00000000     0.00000000     2.45853299
Discrepancy in bohr =     0.000000    0.000000    0.000000
     new conv_thr            =       0.0000001000 Ry

     new unit-cell volume =   2419.77879 a.u.^3 (   358.57422 Ang^3 )
     density =      8.69202 g/cm^3

CELL_PARAMETERS (alat= 10.61193968)
   0.983395520   0.000000000   0.000000000
  -0.491697760   0.851645502   0.000000000
   0.000000000   0.000000000   2.417710326

ATOMIC_POSITIONS (crystal)
Fe2           0.0000000000        0.0000000000        0.7772495689
Fe1           0.3333330000        0.6666670000        0.9438955412
Fe1           0.6666670000        0.3333330000        0.6106147604
Fe2           0.6666670000        0.3333330000        0.1106303246
Fe1          -0.0000000000       -0.0000000000        0.2772682519
Fe2           0.3333330000        0.6666670000        0.4438932836
Bi            0.6666670000        0.3333330000        0.8404339885
Bi            0.3333330000        0.6666670000        0.6735998860
Bi            0.3333330000        0.6666670000        0.1735970766
Bi           -0.0000000000       -0.0000000000        0.0070036121
Bi           -0.0000000000       -0.0000000000        0.5070111491
Bi            0.6666670000        0.3333330000        0.3404372992
O             0.0832213918        0.7676167372        0.8795660106
O             0.2323832628        0.3156036547        0.8795660106
O             0.6843963453        0.9167786082        0.8795660106
O             0.7498970473        0.6489280827        0.7129225878
O             0.3510719173        0.1009699647        0.7129225878
O             0.8990300353        0.2501029527        0.7129225878
O             0.7498872201        0.1009626346        0.2129316419
O             0.8990373654        0.6489255855        0.2129316419
O             0.3510744145        0.2501127799        0.2129316419
O             0.4166234887        0.9823791204        0.0461954964
O             0.0176208796        0.4342443683        0.0461954964
O             0.5657556317        0.5833765113        0.0461954964
O             0.4166179309        0.4342516508        0.5461937639
O             0.5657483492        0.9823662801        0.5461937639
O             0.0176337199        0.5833820691        0.5461937639
O             0.0832079553        0.3155927144        0.3795749188
O             0.6844072856        0.7676142409        0.3795749188
O             0.2323857591        0.9167920447        0.3795749188

     Writing output data file /home/aldair1809/Documentos/QE/geom_opt_temp/bifeo3-relax.save/
     NEW-OLD atomic charge density approx. for the potential

     Check: negative core charge=   -0.000017

     negative rho (up, down):  1.206E-01 1.206E-01
     extrapolated charge  293.95032, renormalised to  294.00000
     Generating pointlists ...

     Self-consistent Calculation

[...]

     Threshold (ethr) on eigenvalues was too large:
     Diagonalizing with lowered threshold

     CG style diagonalization
     c_bands:  3 eigenvalues not converged
     c_bands:  3 eigenvalues not converged
     c_bands:  5 eigenvalues not converged
     c_bands:  2 eigenvalues not converged
     c_bands:  3 eigenvalues not converged
     c_bands:  4 eigenvalues not converged
     c_bands:  3 eigenvalues not converged
     ethr =  4.96E-08,  avg # of iterations =  5.1

[...]

     iteration #  8     ecut=    30.00 Ry     beta= 0.20
     CG style diagonalization
     ethr =  4.92E-10,  avg # of iterations =  3.0

     negative rho (up, down):  1.206E-01 1.206E-01

     total energy              =   -3195.01805998 Ry
     estimated scf accuracy    <       0.00000148 Ry

     total magnetization       =     0.00 Bohr mag/cell
     absolute magnetization    =    24.47 Bohr mag/cell

     iteration #  9     ecut=    30.00 Ry     beta= 0.20
     CG style diagonalization

     max_seconds     =   18000.00
     Calculation stopped in k-point loop, point #    11
     Calculation stopped in scf loop at iteration #     8

     Writing output data file /home/aldair1809/Documentos/QE/geom_opt_temp/bifeo3-relax.save/

     General routines

     Parallel routines

   This run was terminated on:  22:59: 9   6Nov2024

   JOB DONE.