     Program PWSCF v.6.7MaX starts on  2Oct2024 at 19: 2:56

     R & G space division:  proc/nbgrp/npool/nimage =       4
     Waiting for input...
     Reading input from standard input

     Current dimensions of program PWSCF are:
     Max number of different atomic species (ntypx) = 10
     Max number of k-points (npk) =  40000
     Max angular momentum in pseudopotentials (lmaxx) =  3
     Message from routine iosys:
     wrong startingpot: use default (1)

     bravais-lattice index     =            4
     lattice parameter (alat)  =      10.6119  a.u.
     unit-cell volume          =    2595.2065 (a.u.)^3
     number of atoms/cell      =           30
     number of atomic types    =            4
     number of electrons       =       294.00 (up: 147.00, down: 147.00)
     number of Kohn-Sham states=          200
     kinetic-energy cutoff     =      30.0000  Ry
     charge density cutoff     =     300.0000  Ry
     scf convergence threshold =      1.0E-05
     mixing beta               =       0.2000
     number of iterations used =            8  plain     mixing
     energy convergence thresh.=      1.0E-04
     force convergence thresh. =      1.0E-03
     press convergence thresh. =      5.0E-01
     Exchange-correlation=  SLA  PW   PBX  PBC
                           (   1   4   3   4   0   0   0)
     nstep                     =           50

     celldm(1)=  10.611940  celldm(2)=   0.000000  celldm(3)=   2.507593
     celldm(4)=   0.000000  celldm(5)=   0.000000  celldm(6)=   0.000000

     crystal axes: (cart. coord. in units of alat)
               a(1) = (   1.000000   0.000000   0.000000 )
               a(2) = (  -0.500000   0.866025   0.000000 )
               a(3) = (   0.000000   0.000000   2.507593 )

     reciprocal axes: (cart. coord. in units 2 pi/alat)
               b(1) = (  1.000000  0.577350 -0.000000 )
               b(2) = (  0.000000  1.154701  0.000000 )
               b(3) = (  0.000000 -0.000000  0.398789 )

     PseudoPot. # 1 for O  read from file:
     /home/aldair1809/Programas/QE/q-e-qe-7.3/pseudo/o_pbe_v1.2.uspp.F.UPF
     MD5 check sum: 734c27235a0248c51dbae37a1fbe46ec
     Pseudo is Ultrasoft + core correction, Zval =  6.0
     Generated by new atomic code, or converted to UPF format
     Using radial grid of  737 points,  5 beta functions with:
                l(1) =   0
                l(2) =   0
                l(3) =   1
                l(4) =   1
                l(5) =   2
     Q(r) pseudized with  8 coefficients,  rinner =    0.900   0.900   0.900
                                                       0.900   0.900

     PseudoPot. # 2 for Bi read from file:
     /home/aldair1809/Programas/QE/q-e-qe-7.3/pseudo/bi_pbe_v1.uspp.F.UPF
     MD5 check sum: cceb9f28ec65b6d7ff33140f5b0b1758
     Pseudo is Ultrasoft + core correction, Zval = 15.0
     Generated by new atomic code, or converted to UPF format
     Using radial grid of  899 points,  6 beta functions with:
                l(1) =   0
                l(2) =   0
                l(3) =   1
                l(4) =   1
                l(5) =   2
                l(6) =   2
     Q(r) pseudized with  6 coefficients,  rinner =    1.000   1.000   1.000
                                                       1.000   1.000

     PseudoPot. # 3 for Fe read from file:
     /home/aldair1809/Programas/QE/q-e-qe-7.3/pseudo/fe_pbe_v1.5.uspp.F.UPF
     MD5 check sum: a130daea23fe5165f5d574ae7f82ed95
     Pseudo is Ultrasoft + core correction, Zval = 16.0
     Generated by new atomic code, or converted to UPF format
     Using radial grid of  861 points,  6 beta functions with:
                l(1) =   0
                l(2) =   0
                l(3) =   1
                l(4) =   1
                l(5) =   2
                l(6) =   2
     Q(r) pseudized with  8 coefficients,  rinner =    1.000   1.000   1.000
                                                       1.000   1.000

[...]

     atomic species   valence    mass     pseudopotential
        O              6.00    15.99940     O ( 1.00)
        Bi            15.00   208.98040     Bi( 1.00)
        Fe1           16.00    55.84500     Fe( 1.00)
        Fe2           16.00    55.84500     Fe( 1.00)

     Starting magnetic structure
     atomic species   magnetization
        O            0.000
        Bi           0.000
        Fe1         -0.800
        Fe2          0.800

      3 Sym. Ops. (no inversion) found

                                    s                        frac. trans.

      isym =  1     identity

 cryst.   s( 1) = (     1          0          0      )
                  (     0          1          0      )
                  (     0          0          1      )

 cart.    s( 1) = (  1.0000000  0.0000000  0.0000000 )
                  (  0.0000000  1.0000000  0.0000000 )
                  (  0.0000000  0.0000000  1.0000000 )

      isym =  2     120 deg rotation - cryst. axis [0,0,1]

[...]

     point group C_3 (3)
     there are  3 classes
     the character table:

       E     C3    C3^2
A      1.00  1.00  1.00
E      1.00 -0.50 -0.50
E*     1.00 -0.50 -0.50
     imaginary part
A      0.00  0.00  0.00
E      0.00  0.87 -0.87
E*     0.00 -0.87  0.87

     the symmetry operations in each class and the name of the first element:

     E        1
          identity
     C3       2
          120 deg rotation - cryst. axis [0,0,1]
     C3^2     3
          120 deg rotation - cryst. axis [0,0,-1]

   Cartesian axes

     site n.     atom                  positions (alat units)
         1           Fe1 tau(   1) = (   0.0000000   0.0000000   1.9478107  )
         2           Fe1 tau(   2) = (  -0.0000005   0.5773506   2.3729494  )
         3           Fe1 tau(   3) = (   0.5000005   0.2886748   1.5274126  )
         4           Fe2 tau(   4) = (   0.5000005   0.2886748   0.2735761  )
         5           Fe2 tau(   5) = (   0.0000000   0.0000000   0.6940396  )
         6           Fe2 tau(   6) = (  -0.0000005   0.5773506   1.1191187  )
         7           Bi  tau(   7) = (   0.5000005   0.2886748   2.0943705  )
         8           Bi  tau(   8) = (  -0.0000005   0.5773506   1.6794620  )
         9           Bi  tau(   9) = (  -0.0000005   0.5773506   0.4255883  )
        10           Bi  tau(  10) = (   0.0000000   0.0000000   0.0002835  )
        11           Bi  tau(  11) = (   0.0000000   0.0000000   1.2541243  )
        12           Bi  tau(  12) = (   0.5000005   0.2886748   0.8405223  )
        13           O   tau(  13) = (  -0.3105904   0.6551932   2.2117497  )
        14           O   tau(  14) = (   0.0878817   0.2694488   2.2117497  )
        15           O   tau(  15) = (   0.2227102   0.8074080   2.2117497  )
        16           O   tau(  16) = (   0.4087504   0.5589755   1.7932577  )
        17           O   tau(  17) = (   0.3115373   0.0745013   1.7932577  )
        18           O   tau(  18) = (   0.7797108   0.2325494   1.7932577  )
        19           O   tau(  19) = (   0.6884743   0.0745026   0.5394144  )
        20           O   tau(  20) = (   0.5912412   0.5589858   0.5394144  )
        21           O   tau(  21) = (   0.2202830   0.2325379   0.5394144  )
        22           O   tau(  22) = (  -0.0823010   0.8482993   0.1171819  )
        23           O   tau(  23) = (  -0.1934983   0.3706010   0.1171819  )
        24           O   tau(  24) = (   0.2757993   0.5131505   0.1171819  )
        25           O   tau(  25) = (   0.1934855   0.3705936   1.3710260  )
        26           O   tau(  26) = (   0.0823138   0.8482919   1.3710260  )
        27           O   tau(  27) = (  -0.2757993   0.5131653   1.3710260  )
        28           O   tau(  28) = (  -0.0878870   0.2694458   0.9579683  )
        29           O   tau(  29) = (   0.3105971   0.6551893   0.9579683  )
        30           O   tau(  30) = (  -0.2227086   0.8074149   0.9579683  )

   Crystallographic axes

     site n.     atom                  positions (cryst. coord.)
         1           Fe1 tau(   1) = (  0.0000000  0.0000000  0.7767652  )
         2           Fe1 tau(   2) = (  0.3333330  0.6666670  0.9463058  )
         3           Fe1 tau(   3) = (  0.6666670  0.3333330  0.6091152  )
         4           Fe2 tau(   4) = (  0.6666670  0.3333330  0.1090991  )
         5           Fe2 tau(   5) = (  0.0000000  0.0000000  0.2767753  )
         6           Fe2 tau(   6) = (  0.3333330  0.6666670  0.4462921  )
         7           Bi  tau(   7) = (  0.6666670  0.3333330  0.8352117  )
         8           Bi  tau(   8) = (  0.3333330  0.6666670  0.6697508  )
         9           Bi  tau(   9) = (  0.3333330  0.6666670  0.1697199  )
        10           Bi  tau(  10) = (  0.0000000  0.0000000  0.0001130  )
        11           Bi  tau(  11) = (  0.0000000  0.0000000  0.5001308  )
        12           Bi  tau(  12) = (  0.6666670  0.3333330  0.3351910  )
        13           O   tau(  13) = (  0.0676856  0.7565520  0.8820212  )
        14           O   tau(  14) = (  0.2434480  0.3111326  0.8820212  )
        15           O   tau(  15) = (  0.6888674  0.9323144  0.8820212  )
        16           O   tau(  16) = (  0.7314750  0.6454493  0.7151312  )
        17           O   tau(  17) = (  0.3545507  0.0860267  0.7151312  )
        18           O   tau(  18) = (  0.9139733  0.2685250  0.7151312  )
        19           O   tau(  19) = (  0.7314884  0.0860282  0.2151125  )
        20           O   tau(  20) = (  0.9139718  0.6454612  0.2151125  )
        21           O   tau(  21) = (  0.3545388  0.2685116  0.2151125  )
        22           O   tau(  22) = (  0.4074649  0.9795317  0.0467309  )
        23           O   tau(  23) = (  0.0204683  0.4279331  0.0467309  )
        24           O   tau(  24) = (  0.5720669  0.5925351  0.0467309  )
        25           O   tau(  25) = (  0.4074478  0.4279246  0.5467499  )
        26           O   tau(  26) = (  0.5720754  0.9795232  0.5467499  )
        27           O   tau(  27) = (  0.0204768  0.5925522  0.5467499  )
        28           O   tau(  28) = (  0.0676776  0.3111292  0.3820271  )
        29           O   tau(  29) = (  0.6888708  0.7565474  0.3820271  )
        30           O   tau(  30) = (  0.2434526  0.9323225  0.3820271  )

     number of k points=     6  Methfessel-Paxton smearing, width (Ry)=  0.0100
                       cart. coord. in units 2pi/alat
        k(    1) = (   0.0000000   0.0000000   0.0000000), wk =   0.0555556
        k(    2) = (   0.0000000   0.0000000  -0.1993944), wk =   0.0555556
        k(    3) = (   0.0000000   0.3849002   0.0000000), wk =   0.3333333
        k(    4) = (   0.0000000   0.3849002  -0.1993944), wk =   0.3333333
        k(    5) = (   0.3333333   0.5773503   0.0000000), wk =   0.1111111
        k(    6) = (   0.3333333   0.5773503  -0.1993944), wk =   0.1111111

                       cryst. coord.
        k(    1) = (   0.0000000   0.0000000   0.0000000), wk =   0.0555556
        k(    2) = (   0.0000000   0.0000000  -0.5000000), wk =   0.0555556
        k(    3) = (   0.0000000   0.3333333   0.0000000), wk =   0.3333333
        k(    4) = (   0.0000000   0.3333333  -0.5000000), wk =   0.3333333
[...]
     atom    1 type  3   force =     0.00000000    0.00000000    0.11712363
     atom    2 type  3   force =    -0.00000000    0.00000000    0.15585154
     atom    3 type  3   force =     0.00000000   -0.00000000    0.08292760
     atom    4 type  4   force =    -0.00000000   -0.00000000    0.08291442
     atom    5 type  4   force =     0.00000000    0.00000000    0.11709356
     atom    6 type  4   force =     0.00000000   -0.00000000    0.15582330
     atom    7 type  2   force =     0.00000000   -0.00000000   -0.38344113
     atom    8 type  2   force =    -0.00000000   -0.00000000   -0.33657452
     atom    9 type  2   force =     0.00000000   -0.00000000   -0.33680381
     atom   10 type  2   force =    -0.00000000   -0.00000000   -0.40679811
     atom   11 type  2   force =     0.00000000    0.00000000   -0.40661586
     atom   12 type  2   force =     0.00000000    0.00000000   -0.38342694
     atom   13 type  1   force =    -0.03866491    0.00942110    0.21133034
     atom   14 type  1   force =     0.01117354   -0.03819534    0.21133034
     atom   15 type  1   force =     0.02749137    0.02877424    0.21133034
     atom   16 type  1   force =    -0.02841865    0.01808094    0.20074142
     atom   17 type  1   force =    -0.00144923   -0.03365174    0.20074142
     atom   18 type  1   force =     0.02986788    0.01557080    0.20074142
     atom   19 type  1   force =     0.00134001   -0.03358058    0.20077302
     atom   20 type  1   force =     0.02841162    0.01795077    0.20077302
     atom   21 type  1   force =    -0.02975164    0.01562980    0.20077302
     atom   22 type  1   force =     0.01046982    0.00833410    0.12954147
     atom   23 type  1   force =    -0.01245245    0.00490009    0.12954147
     atom   24 type  1   force =     0.00198263   -0.01323418    0.12954147
     atom   25 type  1   force =     0.01251628    0.00494202    0.12942949
     atom   26 type  1   force =    -0.01053805    0.00836841    0.12942949
     atom   27 type  1   force =    -0.00197823   -0.01331042    0.12942949
     atom   28 type  1   force =    -0.01109258   -0.03834909    0.21122038
     atom   29 type  1   force =     0.03875758    0.00956809    0.21122038
     atom   30 type  1   force =    -0.02766500    0.02878100    0.21122038
     The ionic contribution  to forces
     atom    1 type  3   force =    -0.00001602    0.00000925   -4.55964719
     atom    2 type  3   force =     0.00012674   -0.00007317   -5.56027267
     atom    3 type  3   force =    -0.00011427    0.00006597   -2.90863916
     atom    4 type  4   force =    -0.00011427    0.00006597   -2.88883016
     atom    5 type  4   force =    -0.00001600    0.00000924   -4.55483334
     atom    6 type  4   force =     0.00012672   -0.00007316   -5.57696515
     atom    7 type  2   force =    -0.00006802    0.00003927    7.63842009
     atom    8 type  2   force =     0.00007280   -0.00004203    8.21821764
     atom    9 type  2   force =     0.00007280   -0.00004203    8.23525877
     atom   10 type  2   force =    -0.00000569    0.00000329    8.88169807
     atom   11 type  2   force =    -0.00000570    0.00000329    8.86654406
     atom   12 type  2   force =    -0.00006801    0.00003927    7.63929009
     atom   13 type  1   force =    -0.20971998   -1.87923688   -1.66536593
     atom   14 type  1   force =     1.73234039    0.75814275   -1.66526891
     atom   15 type  1   force =    -1.52268081    1.12112900   -1.66528617
     atom   16 type  1   force =    -1.63434840    0.06396964   -1.45093633
     atom   17 type  1   force =     0.76172103   -1.44731302   -1.45094042
     atom   18 type  1   force =     0.87267034    1.38331858   -1.45087156
     atom   19 type  1   force =    -0.76008397   -1.44862027   -1.44730944
     atom   20 type  1   force =     1.63453008    0.06594947   -1.44737828
     atom   21 type  1   force =    -0.87440316    1.38264599   -1.44737419
     atom   22 type  1   force =    -2.01354604    0.37491440   -0.78555736
     atom   23 type  1   force =     0.68213353   -1.93121974   -0.78557262
     atom   24 type  1   force =     1.33143440    1.55629271   -0.78554829
     atom   25 type  1   force =    -0.68289124   -1.93131313   -0.79260854
     atom   26 type  1   force =     2.01405777    0.37421063   -0.79263286
     atom   27 type  1   force =    -1.33114463    1.55708986   -0.79261760
     atom   28 type  1   force =    -1.73278592    0.76095492   -1.66830335
     atom   29 type  1   force =     0.20740019   -1.88119147   -1.66828609
     atom   30 type  1   force =     1.52532534    1.12027141   -1.66838311
     The local contribution  to forces
     atom    1 type  3   force =     0.00000000    0.00000000    4.44278079
     atom    2 type  3   force =     0.00146292   -0.00084462    5.40849774
     atom    3 type  3   force =    -0.00146060    0.00084328    2.82506510
     atom    4 type  4   force =    -0.00146061    0.00084329    2.80553537
     atom    5 type  4   force =    -0.00000000    0.00000000    4.43813844
     atom    6 type  4   force =     0.00146293   -0.00084463    5.42500427
     atom    7 type  2   force =    -0.00035727    0.00020627   -7.27379862
     atom    8 type  2   force =     0.00035706   -0.00020615   -7.89794233
     atom    9 type  2   force =     0.00035707   -0.00020615   -7.91455539
     atom   10 type  2   force =     0.00000000   -0.00000000   -8.49385373
     atom   11 type  2   force =    -0.00000000   -0.00000000   -8.47901764
     atom   12 type  2   force =    -0.00035728    0.00020628   -7.27458867
     atom   13 type  1   force =     0.24888136    1.86981098    1.45545633
     atom   14 type  1   force =    -1.74394638   -0.71909186    1.45539940
     atom   15 type  1   force =     1.49452309   -1.15040624    1.45541177
     atom   16 type  1   force =     1.66302579   -0.08184884    1.25089931
     atom   17 type  1   force =    -0.76043073    1.48079805    1.25091258
     atom   18 type  1   force =    -0.90205516   -1.39926092    1.25085552
     atom   19 type  1   force =     0.75935593    1.48194223    1.24737584
     atom   20 type  1   force =    -1.66287859   -0.08362408    1.24743289
     atom   21 type  1   force =     0.90406258   -1.39862988    1.24741962
     atom   22 type  1   force =     2.00266660   -0.38338097    0.65670840
     atom   23 type  1   force =    -0.66931564    1.92605063    0.65670840
     atom   24 type  1   force =    -1.33335096   -1.54266967    0.65670840
     atom   25 type  1   force =     0.67004035    1.92615792    0.66368829
     atom   26 type  1   force =    -2.00312187   -0.38280699    0.66368829
     atom   27 type  1   force =     1.33308151   -1.54335093    0.66368829
     atom   28 type  1   force =     1.74400863   -0.72175482    1.45846822
     atom   29 type  1   force =    -0.24714820    1.87158291    1.45845583
     atom   30 type  1   force =    -1.49740238   -1.14951519    1.45851277
     The core correction contribution to forces
     atom    1 type  3   force =     0.00000000   -0.00000000   -0.00059667
     atom    2 type  3   force =     0.00000120   -0.00000069   -0.00437903
     atom    3 type  3   force =    -0.00000117    0.00000067    0.00094981
     atom    4 type  4   force =    -0.00000117    0.00000067    0.00094908
     atom    5 type  4   force =     0.00000000   -0.00000000   -0.00059801
     atom    6 type  4   force =     0.00000120   -0.00000069   -0.00438011
     atom    7 type  2   force =    -0.00001395    0.00000805    0.01819000
     atom    8 type  2   force =     0.00001393   -0.00000804    0.01659949
     atom    9 type  2   force =     0.00001393   -0.00000804    0.01659898
     atom   10 type  2   force =    -0.00000000   -0.00000000    0.01814459
     atom   11 type  2   force =     0.00000000    0.00000000    0.01814234
     atom   12 type  2   force =    -0.00001395    0.00000805    0.01818402
     atom   13 type  1   force =     0.00010431   -0.00010738   -0.00105864
     atom   14 type  1   force =     0.00004047    0.00014476   -0.00105864
     atom   15 type  1   force =    -0.00014602   -0.00003666   -0.00105869
     atom   16 type  1   force =     0.00003473   -0.00007010   -0.00092902
     atom   17 type  1   force =     0.00004372    0.00006441   -0.00092907
     atom   18 type  1   force =    -0.00007720    0.00000496   -0.00092907
     atom   19 type  1   force =    -0.00004249    0.00006420   -0.00092926
     atom   20 type  1   force =    -0.00003397   -0.00006963   -0.00092926
     atom   21 type  1   force =     0.00007772    0.00000471   -0.00092921
     atom   22 type  1   force =    -0.00012777   -0.00003555   -0.00055040
     atom   23 type  1   force =     0.00009467   -0.00009288   -0.00055040
     atom   24 type  1   force =     0.00003310    0.00012843   -0.00055040
     atom   25 type  1   force =    -0.00009484   -0.00009328   -0.00054949
     atom   26 type  1   force =     0.00012820   -0.00003550   -0.00054949
     atom   27 type  1   force =    -0.00003336    0.00012878   -0.00054949
     atom   28 type  1   force =    -0.00004185    0.00014528   -0.00105787
     atom   29 type  1   force =    -0.00010527   -0.00010819   -0.00105782
     atom   30 type  1   force =     0.00014587   -0.00003638   -0.00105782
     The Hubbard contrib.    to forces
     atom    1 type  3   force =     0.00000000    0.00000000    0.00000000
     atom    2 type  3   force =     0.00000000    0.00000000    0.00000000
     atom    3 type  3   force =     0.00000000    0.00000000    0.00000000
     atom    4 type  4   force =     0.00000000    0.00000000    0.00000000
     atom    5 type  4   force =     0.00000000    0.00000000    0.00000000
     atom    6 type  4   force =     0.00000000    0.00000000    0.00000000
     atom    7 type  2   force =     0.00000000    0.00000000    0.00000000
     atom    8 type  2   force =     0.00000000    0.00000000    0.00000000
     atom    9 type  2   force =     0.00000000    0.00000000    0.00000000
     atom   10 type  2   force =     0.00000000    0.00000000    0.00000000
     atom   11 type  2   force =     0.00000000    0.00000000    0.00000000
     atom   12 type  2   force =     0.00000000    0.00000000    0.00000000
     atom   13 type  1   force =     0.00000000    0.00000000    0.00000000
     atom   14 type  1   force =     0.00000000    0.00000000    0.00000000
     atom   15 type  1   force =     0.00000000    0.00000000    0.00000000
     atom   16 type  1   force =     0.00000000    0.00000000    0.00000000
     atom   17 type  1   force =     0.00000000    0.00000000    0.00000000
     atom   18 type  1   force =     0.00000000    0.00000000    0.00000000
     atom   19 type  1   force =     0.00000000    0.00000000    0.00000000
     atom   20 type  1   force =     0.00000000    0.00000000    0.00000000
     atom   21 type  1   force =     0.00000000    0.00000000    0.00000000
     atom   22 type  1   force =     0.00000000    0.00000000    0.00000000
     atom   23 type  1   force =     0.00000000    0.00000000    0.00000000
     atom   24 type  1   force =     0.00000000    0.00000000    0.00000000
     atom   25 type  1   force =     0.00000000    0.00000000    0.00000000
     atom   26 type  1   force =     0.00000000    0.00000000    0.00000000
     atom   27 type  1   force =     0.00000000    0.00000000    0.00000000
     atom   28 type  1   force =     0.00000000    0.00000000    0.00000000
     atom   29 type  1   force =     0.00000000    0.00000000    0.00000000
     atom   30 type  1   force =     0.00000000    0.00000000    0.00000000
     The SCF correction term to forces
     atom    1 type  3   force =    -0.00000000    0.00000000    0.00026159
     atom    2 type  3   force =     0.00000008   -0.00000005    0.00007798
     atom    3 type  3   force =    -0.00000009    0.00000005    0.00040016
     atom    4 type  4   force =    -0.00000009    0.00000005    0.00004418
     atom    5 type  4   force =    -0.00000000    0.00000000    0.00005814
     atom    6 type  4   force =     0.00000008   -0.00000004    0.00031664
     atom    7 type  2   force =    -0.00000002    0.00000001   -0.00011742
     atom    8 type  2   force =     0.00000002   -0.00000001    0.00009992
     atom    9 type  2   force =     0.00000002   -0.00000001   -0.00026248
     atom   10 type  2   force =    -0.00000000    0.00000000   -0.00022305
     atom   11 type  2   force =    -0.00000000    0.00000000    0.00015984
     atom   12 type  2   force =    -0.00000002    0.00000001   -0.00013633
     atom   13 type  1   force =    -0.00009670    0.00001547   -0.00001042
     atom   14 type  1   force =     0.00003495   -0.00009147   -0.00001041
     atom   15 type  1   force =     0.00006173    0.00007601   -0.00001041
     atom   16 type  1   force =    -0.00003412   -0.00007948    0.00007019
     atom   17 type  1   force =     0.00008589    0.00001019    0.00007019
     atom   18 type  1   force =    -0.00005176    0.00006928    0.00007019
     atom   19 type  1   force =    -0.00012557    0.00002157   -0.00006383
     atom   20 type  1   force =     0.00004411   -0.00011955   -0.00006383
     atom   21 type  1   force =     0.00008148    0.00009796   -0.00006383
     atom   22 type  1   force =    -0.00003017   -0.00003515   -0.00000576
     atom   23 type  1   force =     0.00004553   -0.00000855   -0.00000576
     atom   24 type  1   force =    -0.00001536    0.00004371   -0.00000576
     atom   25 type  1   force =    -0.00002181   -0.00003366    0.00017152
     atom   26 type  1   force =     0.00004006   -0.00000206    0.00017152
     atom   27 type  1   force =    -0.00001825    0.00003572    0.00017152
     atom   28 type  1   force =    -0.00005310   -0.00009621    0.00003217
     atom   29 type  1   force =     0.00010987    0.00000212    0.00003217
     atom   30 type  1   force =    -0.00005679    0.00009410    0.00003216

     Total force =     0.003335     Total SCF correction =     0.000890
     SCF correction compared to forces is large: reduce conv_thr to get better values

     Computing stress (Cartesian axis) and pressure

     negative rho (up, down):  1.180E-01 1.180E-01
          total   stress  (Ry/bohr**3)                   (kbar)     P=      -52.23
  -0.00031921   0.00000000   0.00000000          -46.96        0.00        0.00
   0.00000000  -0.00031921  -0.00000000            0.00      -46.96       -0.00
   0.00000000  -0.00000000  -0.00042664            0.00       -0.00      -62.76

     kinetic stress (kbar)  23580.72      0.00      0.00
                                0.00  23580.72      0.00
                                0.00      0.00  23565.91

     local   stress (kbar)  -6321.82     -0.00      0.00
                               -0.00  -6321.82     -0.00
                                0.00     -0.00  -2343.80

     nonloc. stress (kbar)  15517.51      0.00      0.00
                                0.00  15517.51     -0.00
                                0.00     -0.00  15482.20

     hartree stress (kbar)  17094.24      0.00      0.00
                                0.00  17094.24     -0.00
                                0.00     -0.00  15592.95

     exc-cor stress (kbar)   9228.96     -0.00      0.00
                               -0.00   9228.96     -0.00
                                0.00     -0.00   9223.65

     corecor stress (kbar) -18602.35      0.00     -0.00
                                0.00 -18602.35      0.00
                               -0.00      0.00 -18602.24

     ewald   stress (kbar) -40544.21      0.00     -0.00
                                0.00 -40544.21      0.00
                               -0.00      0.00 -42981.42

     hubbard stress (kbar)      0.00      0.00      0.00
                                0.00      0.00      0.00
                                0.00      0.00      0.00

     DFT-D   stress (kbar)      0.00      0.00      0.00
                                0.00      0.00      0.00
                                0.00      0.00      0.00

     XDM     stress (kbar)      0.00      0.00      0.00
                                0.00      0.00      0.00
                                0.00      0.00      0.00

     dft-nl  stress (kbar)      0.00      0.00      0.00
                                0.00      0.00      0.00
                                0.00      0.00      0.00

     TS-vdW  stress (kbar)      0.00      0.00      0.00
                                0.00      0.00      0.00
                                0.00      0.00      0.00

     Writing output data file /home/aldair1809/Documentos/QE/4BFO/UHUBBARD/temp/geom_opt_relax/bifeo3-relax.save/

     General routines

     Parallel routines

   This run was terminated on:   4:18: 9   3Oct2024

   JOB DONE.