     Program PWSCF v.6.7MaX starts on 30Sep2024 at  7:31:23

     R & G space division:  proc/nbgrp/npool/nimage =       4
     Waiting for input...
     Reading input from standard input

     Current dimensions of program PWSCF are:
     Max number of different atomic species (ntypx) = 10
     Max number of k-points (npk) =  40000
     Max angular momentum in pseudopotentials (lmaxx) =  3
     Message from routine input:
     WARNING: "startingwfc" set to atomic+random may spoil restart
     Message from routine input:
     WARNING: "startingpot" set to random may spoil restart

     Message from routine setup:
     using ibrav=0 with symmetry is DISCOURAGED, use correct ibrav instead

     bravais-lattice index     =            0
     lattice parameter (alat)  =      10.5468  a.u.
     unit-cell volume          =    2535.5110 (a.u.)^3
     number of atoms/cell      =           30
     number of atomic types    =            4
     number of electrons       =       294.00
     number of Kohn-Sham states=          200
     kinetic-energy cutoff     =      25.0000  Ry
     charge density cutoff     =     100.0000  Ry
     scf convergence threshold =      1.0E-03
     mixing beta               =       0.2000
     number of iterations used =            8  plain     mixing
     Exchange-correlation=  SLA  PW   PBX  PBC
                           (   1   4   3   4   0   0   0)

     celldm(1)=  10.546849  celldm(2)=   0.000000  celldm(3)=   0.000000
     celldm(4)=   0.000000  celldm(5)=   0.000000  celldm(6)=   0.000000

     crystal axes: (cart. coord. in units of alat)
               a(1) = (   1.000000  -0.000000  -0.000000 )
               a(2) = (  -0.500000   0.866025  -0.000000 )
               a(3) = (   0.000000  -0.000000   2.495552 )

     reciprocal axes: (cart. coord. in units 2 pi/alat)
               b(1) = (  1.000000  0.577350  0.000000 )
               b(2) = (  0.000000  1.154701  0.000000 )
               b(3) = (  0.000000  0.000000  0.400713 )

     PseudoPot. # 1 for O  read from file:
     /home/aldair1809/Programas/QE/q-e-qe-7.3/pseudo/o_pbe_v1.2.uspp.F.UPF
     MD5 check sum: 734c27235a0248c51dbae37a1fbe46ec
     Pseudo is Ultrasoft + core correction, Zval =  6.0
     Generated by new atomic code, or converted to UPF format
     Using radial grid of  737 points,  5 beta functions with:
                l(1) =   0
                l(2) =   0
                l(3) =   1
                l(4) =   1
                l(5) =   2
     Q(r) pseudized with  8 coefficients,  rinner =    0.900   0.900   0.900
                                                       0.900   0.900

     PseudoPot. # 2 for Bi read from file:
     /home/aldair1809/Programas/QE/q-e-qe-7.3/pseudo/bi_pbe_v1.uspp.F.UPF
     MD5 check sum: cceb9f28ec65b6d7ff33140f5b0b1758
     Pseudo is Ultrasoft + core correction, Zval = 15.0
     Generated by new atomic code, or converted to UPF format
     Using radial grid of  899 points,  6 beta functions with:
                l(1) =   0
                l(2) =   0
                l(3) =   1
                l(4) =   1
                l(5) =   2
                l(6) =   2
     Q(r) pseudized with  6 coefficients,  rinner =    1.000   1.000   1.000
                                                       1.000   1.000

     PseudoPot. # 3 for Fe read from file:
     /home/aldair1809/Programas/QE/q-e-qe-7.3/pseudo/fe_pbe_v1.5.uspp.F.UPF
     MD5 check sum: a130daea23fe5165f5d574ae7f82ed95
     Pseudo is Ultrasoft + core correction, Zval = 16.0
     Generated by new atomic code, or converted to UPF format
     Using radial grid of  861 points,  6 beta functions with:
                l(1) =   0
                l(2) =   0
                l(3) =   1
                l(4) =   1
                l(5) =   2
                l(6) =   2
     Q(r) pseudized with  8 coefficients,  rinner =    1.000   1.000   1.000
                                                       1.000   1.000

     PseudoPot. # 4 for Fe read from file:
     /home/aldair1809/Programas/QE/q-e-qe-7.3/pseudo/fe_pbe_v1.5.uspp.F.UPF
     MD5 check sum: a130daea23fe5165f5d574ae7f82ed95
     Pseudo is Ultrasoft + core correction, Zval = 16.0
     Generated by new atomic code, or converted to UPF format
     Using radial grid of  861 points,  6 beta functions with:
                l(1) =   0
                l(2) =   0
                l(3) =   1
                l(4) =   1
                l(5) =   2
                l(6) =   2
     Q(r) pseudized with  8 coefficients,  rinner =    1.000   1.000   1.000
                                                       1.000   1.000

     atomic species   valence    mass     pseudopotential
        O              6.00    15.99940     O ( 1.00)
        Bi            15.00   208.98040     Bi( 1.00)
        Fe1           16.00    55.84500     Fe( 1.00)
        Fe2           16.00    55.84500     Fe( 1.00)

     Starting magnetic structure
     atomic species   magnetization
        O            0.000
        Bi           0.000
        Fe1         -0.800
        Fe2          0.800

      3 Sym. Ops. (no inversion) found

                                    s                        frac. trans.

      isym =  1     identity

 cryst.   s( 1) = (     1          0          0      )
                  (     0          1          0      )
                  (     0          0          1      )

 cart.    s( 1) = (  1.0000000 -0.0000000  0.0000000 )
                  (  0.0000000  1.0000000  0.0000000 )
                  (  0.0000000  0.0000000  1.0000000 )

      isym =  2     120 deg rotation - cryst. axis [0,0,1]

[...]

      isym =  3     120 deg rotation - cryst. axis [0,0,-1]

 cryst.   s( 3) = (    -1         -1          0      )
                  (     1          0          0      )
                  (     0          0          1      )

 cart.    s( 3) = ( -0.5000000  0.8660254  0.0000000 )
                  ( -0.8660254 -0.5000000  0.0000000 )
                  (  0.0000000  0.0000000  1.0000000 )

   Cartesian axes

     site n.     atom                  positions (alat units)
         1           Fe1 tau(   1) = (   0.0000000   0.0000000   1.9384582  )
         2           Fe1 tau(   2) = (  -0.0000005   0.5773506   2.3615556  )
         3           Fe1 tau(   3) = (   0.5000005   0.2886748   1.5200787  )
         4           Fe2 tau(   4) = (   0.5000005   0.2886748   0.2722626  )
         5           Fe2 tau(   5) = (   0.0000000   0.0000000   0.6907071  )
         6           Fe2 tau(   6) = (  -0.0000005   0.5773506   1.1137452  )
         7           Bi  tau(   7) = (   0.5000005   0.2886748   2.0843143  )
         8           Bi  tau(   8) = (  -0.0000005   0.5773506   1.6713980  )
         9           Bi  tau(   9) = (  -0.0000005   0.5773506   0.4235448  )
        10           Bi  tau(  10) = (   0.0000000   0.0000000   0.0002821  )
        11           Bi  tau(  11) = (   0.0000000   0.0000000   1.2481025  )
        12           Bi  tau(  12) = (   0.5000005   0.2886748   0.8364865  )
        13           O   tau(  13) = (  -0.3105904   0.6551932   2.2011299  )
        14           O   tau(  14) = (   0.0878817   0.2694488   2.2011299  )
        15           O   tau(  15) = (   0.2227102   0.8074080   2.2011299  )
        16           O   tau(  16) = (   0.4087504   0.5589755   1.7846473  )
        17           O   tau(  17) = (   0.3115373   0.0745013   1.7846473  )
        18           O   tau(  18) = (   0.7797108   0.2325494   1.7846473  )
        19           O   tau(  19) = (   0.6884743   0.0745026   0.5368244  )
        20           O   tau(  20) = (   0.5912412   0.5589858   0.5368244  )
        21           O   tau(  21) = (   0.2202830   0.2325379   0.5368244  )
        22           O   tau(  22) = (  -0.0823010   0.8482993   0.1166193  )
        23           O   tau(  23) = (  -0.1934983   0.3706010   0.1166193  )
        24           O   tau(  24) = (   0.2757993   0.5131505   0.1166193  )
        25           O   tau(  25) = (   0.1934855   0.3705936   1.3644430  )
        26           O   tau(  26) = (   0.0823138   0.8482919   1.3644430  )
        27           O   tau(  27) = (  -0.2757993   0.5131653   1.3644430  )
        28           O   tau(  28) = (  -0.0878870   0.2694458   0.9533686  )
        29           O   tau(  29) = (   0.3105971   0.6551893   0.9533686  )
        30           O   tau(  30) = (  -0.2227086   0.8074149   0.9533686  )

   Crystallographic axes

     site n.     atom                  positions (cryst. coord.)
         1           Fe1 tau(   1) = (  0.0000000  0.0000000  0.7767652  )
         2           Fe1 tau(   2) = (  0.3333330  0.6666670  0.9463058  )
         3           Fe1 tau(   3) = (  0.6666670  0.3333330  0.6091152  )
         4           Fe2 tau(   4) = (  0.6666670  0.3333330  0.1090991  )
         5           Fe2 tau(   5) = (  0.0000000  0.0000000  0.2767753  )
         6           Fe2 tau(   6) = (  0.3333330  0.6666670  0.4462921  )
         7           Bi  tau(   7) = (  0.6666670  0.3333330  0.8352117  )
         8           Bi  tau(   8) = (  0.3333330  0.6666670  0.6697508  )
         9           Bi  tau(   9) = (  0.3333330  0.6666670  0.1697199  )
        10           Bi  tau(  10) = (  0.0000000  0.0000000  0.0001130  )
        11           Bi  tau(  11) = (  0.0000000  0.0000000  0.5001308  )
        12           Bi  tau(  12) = (  0.6666670  0.3333330  0.3351910  )
        13           O   tau(  13) = (  0.0676856  0.7565520  0.8820212  )
        14           O   tau(  14) = (  0.2434480  0.3111326  0.8820212  )
        15           O   tau(  15) = (  0.6888674  0.9323144  0.8820212  )
        16           O   tau(  16) = (  0.7314750  0.6454493  0.7151312  )
        17           O   tau(  17) = (  0.3545507  0.0860267  0.7151312  )
        18           O   tau(  18) = (  0.9139733  0.2685250  0.7151312  )
        19           O   tau(  19) = (  0.7314884  0.0860282  0.2151125  )
        20           O   tau(  20) = (  0.9139718  0.6454612  0.2151125  )
        21           O   tau(  21) = (  0.3545388  0.2685116  0.2151125  )
        22           O   tau(  22) = (  0.4074649  0.9795317  0.0467309  )
        23           O   tau(  23) = (  0.0204683  0.4279331  0.0467309  )
        24           O   tau(  24) = (  0.5720669  0.5925351  0.0467309  )
        25           O   tau(  25) = (  0.4074478  0.4279246  0.5467499  )
        26           O   tau(  26) = (  0.5720754  0.9795232  0.5467499  )
        27           O   tau(  27) = (  0.0204768  0.5925522  0.5467499  )
        28           O   tau(  28) = (  0.0676775  0.3111292  0.3820271  )
        29           O   tau(  29) = (  0.6888708  0.7565474  0.3820271  )
        30           O   tau(  30) = (  0.2434526  0.9323225  0.3820271  )

     number of k points=    19  Gaussian smearing, width (Ry)=  0.0100
                       cart. coord. in units 2pi/alat
        k(    1) = (   0.0000000   0.0000000   0.0000000), wk =   0.0100000
        k(    2) = (   0.0000000   0.0000000   0.1001782), wk =   0.0200000
        k(    3) = (   0.0000000   0.0000000  -0.2003565), wk =   0.0100000
        k(    4) = (   0.0000000   0.2309401   0.0000000), wk =   0.0600000
[...]
        k(    9) = (   0.0000000   0.4618802  -0.2003565), wk =   0.0600000
        k(   10) = (   0.2000000   0.3464102   0.0000000), wk =   0.0600000
        k(   11) = (   0.2000000   0.3464102   0.1001782), wk =   0.0600000
        k(   12) = (   0.2000000   0.3464102  -0.2003565), wk =   0.0600000
        k(   13) = (   0.2000000   0.5773503   0.0000000), wk =   0.0600000
        k(   14) = (   0.2000000   0.5773503   0.1001782), wk =   0.0600000
        k(   15) = (   0.2000000   0.5773503  -0.2003565), wk =   0.0600000
        k(   16) = (  -0.2000000   0.1154701   0.1001782), wk =   0.0600000
        k(   17) = (  -0.4000000   0.2309401   0.1001782), wk =   0.0600000
        k(   18) = (   0.2000000  -0.3464102  -0.1001782), wk =   0.0600000
        k(   19) = (   0.2000000  -0.5773503  -0.1001782), wk =   0.0600000

                       cryst. coord.
        k(    1) = (   0.0000000   0.0000000   0.0000000), wk =   0.0100000
        k(    2) = (   0.0000000   0.0000000   0.2500000), wk =   0.0200000
        k(    3) = (   0.0000000   0.0000000  -0.5000000), wk =   0.0100000
        k(    4) = (   0.0000000   0.2000000   0.0000000), wk =   0.0600000
        k(    5) = (   0.0000000   0.2000000   0.2500000), wk =   0.0600000
        k(    6) = (   0.0000000   0.2000000  -0.5000000), wk =   0.0600000
        k(    7) = (   0.0000000   0.4000000   0.0000000), wk =   0.0600000
        k(    8) = (   0.0000000   0.4000000   0.2500000), wk =   0.0600000
        k(    9) = (   0.0000000   0.4000000  -0.5000000), wk =   0.0600000
        k(   10) = (   0.2000000   0.2000000   0.0000000), wk =   0.0600000
        k(   11) = (   0.2000000   0.2000000   0.2500000), wk =   0.0600000
        k(   12) = (   0.2000000   0.2000000  -0.5000000), wk =   0.0600000
        k(   13) = (   0.2000000   0.4000000   0.0000000), wk =   0.0600000
        k(   14) = (   0.2000000   0.4000000   0.2500000), wk =   0.0600000
        k(   15) = (   0.2000000   0.4000000  -0.5000000), wk =   0.0600000
        k(   16) = (  -0.2000000   0.2000000   0.2500000), wk =   0.0600000
        k(   17) = (  -0.4000000   0.4000000   0.2500000), wk =   0.0600000
        k(   18) = (   0.2000000  -0.4000000  -0.2500000), wk =   0.0600000
        k(   19) = (   0.2000000  -0.6000000  -0.2500000), wk =   0.0600000

     Atomic positions and unit cell read from directory:
     /home/aldair1809/Documentos/QE/4BFO/UHUBBARD/temp/kpoints_ecutwfc_5.in/bifeo3-scf.save/

     Check: negative core charge=   -0.000640
     Generating pointlists ...
     new r_m :   0.1458 (alat units)  1.5374 (a.u.) for type    1
     new r_m :   0.1687 (alat units)  1.7788 (a.u.) for type    2
     new r_m :   0.1458 (alat units)  1.5374 (a.u.) for type    3
     new r_m :   0.1458 (alat units)  1.5374 (a.u.) for type    4

     The initial density is read from file :
     /home/aldair1809/Documentos/QE/4BFO/UHUBBARD/temp/kpoints_ecutwfc_5.in/bifeo3-scf.save/charge-density

     negative rho (up, down):  1.115E-01 1.115E-01
     Starting wfcs are  204 randomized atomic wfcs
     Calculation restarted from scf iteration #    14

     Self-consistent Calculation

     iteration # 14     ecut=    25.00 Ry     beta= 0.20
     Calculation restarted from kpoint #    17
     CG style diagonalization
     c_bands:  2 eigenvalues not converged
     c_bands:  2 eigenvalues not converged
     c_bands:  4 eigenvalues not converged
     c_bands:  1 eigenvalues not converged
     c_bands:  1 eigenvalues not converged
     c_bands:  4 eigenvalues not converged
     c_bands:  2 eigenvalues not converged
     c_bands:  5 eigenvalues not converged
     c_bands:  2 eigenvalues not converged
     c_bands:  1 eigenvalues not converged
     c_bands:  5 eigenvalues not converged
     c_bands:  3 eigenvalues not converged
     c_bands:  2 eigenvalues not converged
     c_bands:  5 eigenvalues not converged
     c_bands:  2 eigenvalues not converged
     c_bands:  4 eigenvalues not converged
     c_bands:  4 eigenvalues not converged
     c_bands:  5 eigenvalues not converged
     c_bands:  5 eigenvalues not converged
     c_bands:  4 eigenvalues not converged
     c_bands:  5 eigenvalues not converged
     ethr =  1.06E-06,  avg # of iterations = 14.3

     negative rho (up, down):  1.115E-01 1.115E-01

     total energy              =   -3193.10458110 Ry
     estimated scf accuracy    <       0.15472482 Ry

     total magnetization       =     0.00 Bohr mag/cell
     absolute magnetization    =    28.85 Bohr mag/cell

     iteration # 15     ecut=    25.00 Ry     beta= 0.20
     CG style diagonalization
     c_bands:  3 eigenvalues not converged
     c_bands:  1 eigenvalues not converged
     c_bands:  3 eigenvalues not converged
     c_bands:  4 eigenvalues not converged
     c_bands:  4 eigenvalues not converged
     c_bands:  3 eigenvalues not converged
     c_bands:  1 eigenvalues not converged
     c_bands:  3 eigenvalues not converged
     c_bands:  2 eigenvalues not converged
     c_bands:  1 eigenvalues not converged
     c_bands:  3 eigenvalues not converged
     c_bands:  2 eigenvalues not converged
     c_bands:  2 eigenvalues not converged
     c_bands:  2 eigenvalues not converged
     c_bands:  2 eigenvalues not converged
     c_bands:  4 eigenvalues not converged
     c_bands:  1 eigenvalues not converged
     c_bands:  1 eigenvalues not converged
     c_bands:  1 eigenvalues not converged
     ethr =  1.06E-06,  avg # of iterations =  9.9

     negative rho (up, down):  1.117E-01 1.117E-01

     Magnetic moment per site:
     atom:    1    charge:   13.0435    magn:   -3.7186    constr:    0.0000
     atom:    2    charge:   13.0531    magn:   -3.6035    constr:    0.0000
     atom:    3    charge:   13.0633    magn:   -3.5967    constr:    0.0000
     atom:    4    charge:   13.0615    magn:    3.5968    constr:    0.0000
     atom:    5    charge:   13.0434    magn:    3.7179    constr:    0.0000
     atom:    6    charge:   13.0515    magn:    3.6034    constr:    0.0000
     atom:    7    charge:   10.4856    magn:   -0.0163    constr:    0.0000
     atom:    8    charge:   10.4848    magn:   -0.0128    constr:    0.0000
     atom:    9    charge:   10.4848    magn:    0.0128    constr:    0.0000
     atom:   10    charge:   10.4879    magn:   -0.0040    constr:    0.0000
     atom:   11    charge:   10.4878    magn:    0.0040    constr:    0.0000
     atom:   12    charge:   10.4856    magn:    0.0163    constr:    0.0000
     atom:   13    charge:    5.4008    magn:   -0.2162    constr:    0.0000
     atom:   14    charge:    5.4008    magn:   -0.2162    constr:    0.0000
     atom:   15    charge:    5.4008    magn:   -0.2162    constr:    0.0000
     atom:   16    charge:    5.3982    magn:   -0.2287    constr:    0.0000
     atom:   17    charge:    5.3982    magn:   -0.2287    constr:    0.0000
     atom:   18    charge:    5.3982    magn:   -0.2287    constr:    0.0000
     atom:   19    charge:    5.3978    magn:    0.2288    constr:    0.0000
     atom:   20    charge:    5.3978    magn:    0.2288    constr:    0.0000
     atom:   21    charge:    5.3978    magn:    0.2288    constr:    0.0000
     atom:   22    charge:    5.3910    magn:    0.0704    constr:    0.0000
     atom:   23    charge:    5.3910    magn:    0.0704    constr:    0.0000
     atom:   24    charge:    5.3910    magn:    0.0704    constr:    0.0000
     atom:   25    charge:    5.3909    magn:   -0.0706    constr:    0.0000
     atom:   26    charge:    5.3909    magn:   -0.0706    constr:    0.0000
     atom:   27    charge:    5.3909    magn:   -0.0706    constr:    0.0000
     atom:   28    charge:    5.4004    magn:    0.2163    constr:    0.0000
     atom:   29    charge:    5.4004    magn:    0.2163    constr:    0.0000
     atom:   30    charge:    5.4004    magn:    0.2163    constr:    0.0000

     End of self-consistent calculation

 ------ SPIN UP ------------

          k = 0.0000 0.0000 0.0000 (  5411 PWs)   bands (ev):

   -79.6572 -79.5022 -79.3591 -74.6767 -74.6691 -74.5318 -45.5051 -45.4580
   -45.4580 -45.3233 -45.3233 -45.3153 -45.2529 -45.1484 -45.1484 -40.6870
   -40.6707 -40.6358 -40.6358 -40.6229 -40.6229 -40.5410 -40.4959 -40.4959
   -11.2526 -11.2526 -11.2150 -11.2149 -11.1966 -11.1966 -11.1635 -11.1502
   -11.1398 -11.1398 -11.1354 -11.1354 -11.1260 -11.1260 -11.1057 -11.0895
   -11.0807 -11.0807 -11.0740 -11.0740 -11.0691 -11.0691 -11.0633 -11.0596
   -11.0596 -11.0516 -11.0355 -11.0355 -11.0224 -11.0224  -7.9893  -7.6127
    -7.5163  -6.7599  -6.7110  -6.3132  -6.3131  -6.1901  -6.1900  -6.1899
    -6.0871  -6.0871  -5.9922  -5.9921  -5.8373  -5.8373  -5.6688  -5.6688
     0.8197   1.0567   1.1348   1.9060   2.0390   2.7899   4.9440   4.9441
     5.0607   5.4389   5.4389   5.5406   5.5406   5.5416   5.7262   5.7359
     5.7359   5.9488   6.0102   6.0102   6.2008   6.2009   6.2667   6.4238
     6.4239   6.4254   6.5193   6.7329   6.7329   7.0224   7.0225   7.1729
     7.3333   7.6104   7.6104   7.7248   7.8465   7.8465   7.9638   7.9638
     8.1560   8.2952   8.3392   8.3392   8.5091   8.5091   8.5198   8.6380
     8.6596   8.6597   8.8197   8.8197   8.9702   8.9702   9.3124   9.3125
     9.3617   9.3618   9.3632   9.4201   9.4201   9.7635   9.7635  10.0871
    10.1865  10.1865  10.2520  10.4248  10.5216  10.6566  10.7308  10.8813
    10.8814  11.5236  11.5236  12.0512  12.0512  12.2771  12.2771  12.2772
    12.3389  12.3626  12.4410  12.4410  13.2087  13.2087  13.8352  13.8352
    14.3840  14.3840  15.0645  15.1788  15.2834  15.3289  16.3776  16.3776
    16.5119  16.5119  16.5563  16.5564  16.8489  16.9103  17.1030  17.1030
    17.1788  17.1788  17.5900  17.5900  18.2980  19.6010  19.8220  19.9902
    20.6956  20.6956  20.9792  21.0565  21.6989  21.6993  21.8057  21.8061
    22.1312  22.1312  22.8666  23.0491  23.0538  23.0430  23.2038  23.3402

     occupation numbers
     1.0000   1.0000   1.0000   1.0000   1.0000   1.0000   1.0000   1.0000
     1.0000   1.0000   1.0000   1.0000   1.0000   1.0000   1.0000   1.0000
     1.0000   1.0000   1.0000   1.0000   1.0000   1.0000   1.0000   1.0000
     1.0000   1.0000   1.0000   1.0000   1.0000   1.0000   1.0000   1.0000
     1.0000   1.0000   1.0000   1.0000   1.0000   1.0000   1.0000   1.0000
     1.0000   1.0000   1.0000   1.0000   1.0000   1.0000   1.0000   1.0000
     1.0000   1.0000   1.0000   1.0000   1.0000   1.0000   1.0000   1.0000
     1.0000   1.0000   1.0000   1.0000   1.0000   1.0000   1.0000   1.0000
     1.0000   1.0000   1.0000   1.0000   1.0000   1.0000   1.0000   1.0000
     1.0000   1.0000   1.0000   1.0000   1.0000   1.0000   1.0000   1.0000
     1.0000   1.0000   1.0000   1.0000   1.0000   1.0000   1.0000   1.0000
     1.0000   1.0000   1.0000   1.0000   1.0000   1.0000   1.0000   1.0000
     1.0000   1.0000   1.0000   1.0000   1.0000   1.0000   1.0000   1.0000
     1.0000   1.0000   1.0000   1.0000   1.0000   1.0000   1.0000   1.0000
     1.0000   1.0000   1.0000   1.0000   1.0000   1.0000   1.0000   1.0000
     1.0000   1.0000   1.0000   1.0000   1.0000   1.0000   1.0000   1.0000
     1.0000   1.0000   1.0000   1.0000   1.0000   1.0000   1.0000   1.0000
     1.0000   1.0000   1.0000   1.0000   1.0000   1.0000   1.0000   1.0000
     1.0000   0.9934   0.9934   0.0013   0.0013   0.0000   0.0000   0.0000
     0.0000   0.0000   0.0000   0.0000   0.0000   0.0000   0.0000   0.0000
     0.0000   0.0000   0.0000   0.0000   0.0000   0.0000   0.0000   0.0000
     0.0000   0.0000   0.0000   0.0000   0.0000   0.0000   0.0000   0.0000
     0.0000   0.0000   0.0000   0.0000   0.0000   0.0000   0.0000   0.0000
     0.0000   0.0000   0.0000   0.0000   0.0000   0.0000   0.0000   0.0000
     0.0000   0.0000   0.0000   0.0000   0.0000   0.0000   0.0000   0.0000

[...]

          k =-0.2000 0.1155 0.1002 (  5363 PWs)   bands (ev):

[...]

 ------ SPIN DOWN ----------

[...]

          k =-0.4000 0.2309 0.1002 (  5344 PWs)   bands (ev):

[...]

          k = 0.2000-0.5774-0.1002 (  5341 PWs)   bands (ev):

   -79.6579 -79.5055 -79.3630 -74.6720 -74.6620 -74.5248 -45.4980 -45.4516
   -45.4478 -45.3182 -45.3153 -45.3110 -45.2478 -45.1444 -45.1413 -40.6737
   -40.6590 -40.6262 -40.6189 -40.6069 -40.6058 -40.5265 -40.4815 -40.4787
   -11.2331 -11.2168 -11.2082 -11.1970 -11.1950 -11.1848 -11.1607 -11.1525
   -11.1413 -11.1375 -11.1339 -11.1207 -11.1168 -11.1083 -11.1053 -11.0962
   -11.0910 -11.0845 -11.0813 -11.0766 -11.0730 -11.0718 -11.0704 -11.0638
   -11.0612 -11.0501 -11.0471 -11.0425 -11.0371 -11.0297  -7.2776  -7.2321
    -7.0925  -6.9967  -6.8948  -6.7299  -6.4861  -6.4309  -6.3669  -6.2777
    -6.2125  -6.1182  -6.0836  -6.0402  -5.9670  -5.8199  -5.7700  -5.7040
     1.1364   1.2489   1.3418   1.4299   1.5216   1.6361   5.1411   5.2691
     5.3526   5.4769   5.6707   5.7139   5.8164   5.8745   5.9687   6.0017
     6.1317   6.2150   6.2853   6.3572   6.4211   6.5838   6.6396   6.7628
     6.8156   6.8903   6.9152   6.9709   7.1166   7.1914   7.3405   7.4224
     7.5352   7.5661   7.6343   7.6924   7.7272   7.7973   7.8907   7.9620
     8.0254   8.1416   8.1635   8.2480   8.3278   8.3638   8.5002   8.5325
     8.6140   8.6274   8.7372   8.7866   8.8959   8.9830   9.0460   9.1169
     9.2258   9.2858   9.2999   9.3580   9.4213   9.5207   9.5696   9.8901
    10.0987  10.1912  10.2584  10.3939  10.5279  10.6159  10.8103  10.8793
    10.9214  11.1224  11.3745  12.0696  12.1254  12.1814  12.2797  12.3720
    12.4324  12.4980  12.6212  12.6698  13.2525  13.3487  13.5217  13.7938
    13.8646  14.1912  14.6520  14.9154  14.9521  15.0810  15.1487  15.2299
    15.8683  15.9710  16.0371  16.3703  16.4204  16.5573  16.7690  16.8230
    16.9349  17.0507  17.1301  17.2055  20.2080  20.3654  20.5849  21.1780
    21.2641  21.3428  21.8027  21.8736  21.9057  22.0751  22.3231  22.4524
    22.6363  22.7867  22.8145  22.8851  23.0184  23.0477  23.1728  23.2448

     occupation numbers
     1.0000   1.0000   1.0000   1.0000   1.0000   1.0000   1.0000   1.0000
     1.0000   1.0000   1.0000   1.0000   1.0000   1.0000   1.0000   1.0000
     1.0000   1.0000   1.0000   1.0000   1.0000   1.0000   1.0000   1.0000
     1.0000   1.0000   1.0000   1.0000   1.0000   1.0000   1.0000   1.0000
     1.0000   1.0000   1.0000   1.0000   1.0000   1.0000   1.0000   1.0000
     1.0000   1.0000   1.0000   1.0000   1.0000   1.0000   1.0000   1.0000
     1.0000   1.0000   1.0000   1.0000   1.0000   1.0000   1.0000   1.0000
     1.0000   1.0000   1.0000   1.0000   1.0000   1.0000   1.0000   1.0000
     1.0000   1.0000   1.0000   1.0000   1.0000   1.0000   1.0000   1.0000
     1.0000   1.0000   1.0000   1.0000   1.0000   1.0000   1.0000   1.0000
     1.0000   1.0000   1.0000   1.0000   1.0000   1.0000   1.0000   1.0000
     1.0000   1.0000   1.0000   1.0000   1.0000   1.0000   1.0000   1.0000
     1.0000   1.0000   1.0000   1.0000   1.0000   1.0000   1.0000   1.0000
     1.0000   1.0000   1.0000   1.0000   1.0000   1.0000   1.0000   1.0000
     1.0000   1.0000   1.0000   1.0000   1.0000   1.0000   1.0000   1.0000
     1.0000   1.0000   1.0000   1.0000   1.0000   1.0000   1.0000   1.0000
     1.0000   1.0000   1.0000   1.0000   1.0000   1.0000   1.0000   1.0000
     1.0000   1.0000   1.0000   1.0000   1.0000   1.0000   1.0000   1.0000
     1.0000   1.0000   1.0000   0.0007   0.0001   0.0000   0.0000   0.0000
     0.0000   0.0000   0.0000   0.0000   0.0000   0.0000   0.0000   0.0000
     0.0000   0.0000   0.0000   0.0000   0.0000   0.0000   0.0000   0.0000
     0.0000   0.0000   0.0000   0.0000   0.0000   0.0000   0.0000   0.0000
     0.0000   0.0000   0.0000   0.0000   0.0000   0.0000   0.0000   0.0000
     0.0000   0.0000   0.0000   0.0000   0.0000   0.0000   0.0000   0.0000
     0.0000   0.0000   0.0000   0.0000   0.0000   0.0000   0.0000   0.0000

     the Fermi energy is    11.7619 ev

!    total energy              =   -3193.10344735 Ry
     estimated scf accuracy    <       0.00033164 Ry
     smearing contrib. (-TS)   =      -0.00019997 Ry
     internal energy E=F+TS    =   -3193.10324739 Ry

     The total energy is F=E-TS. E is the sum of the following terms:
     one-electron contribution =   -1311.22765737 Ry
     hartree contribution      =     840.37012454 Ry
     xc contribution           =    -694.59658060 Ry
     ewald contribution        =   -2027.64913396 Ry

     total magnetization       =     0.00 Bohr mag/cell
     absolute magnetization    =    27.62 Bohr mag/cell

     convergence has been achieved in  15 iterations

     Writing output data file /home/aldair1809/Documentos/QE/4BFO/UHUBBARD/temp/kpoints_ecutwfc_5.in/bifeo3-scf.save/

     General routines

     Parallel routines

   This run was terminated on:   8:18:47  30Sep2024

   JOB DONE.