     Program PWSCF v.6.7MaX starts on 29Sep2024 at 21:37:52

     R & G space division:  proc/nbgrp/npool/nimage =       4
     Waiting for input...
     Reading input from standard input

     Current dimensions of program PWSCF are:
     Max number of different atomic species (ntypx) = 10
     Max number of k-points (npk) =  40000
     Max angular momentum in pseudopotentials (lmaxx) =  3
     Message from routine iosys:
     wrong startingpot: use default (1)

     Message from routine setup:
     using ibrav=0 with symmetry is DISCOURAGED, use correct ibrav instead

     bravais-lattice index     =            0
     lattice parameter (alat)  =      10.5468  a.u.
     unit-cell volume          =    2535.5110 (a.u.)^3
     number of atoms/cell      =           30
     number of atomic types    =            4
     number of electrons       =       294.00
     number of Kohn-Sham states=          200
     kinetic-energy cutoff     =      25.0000  Ry
     charge density cutoff     =     100.0000  Ry
     scf convergence threshold =      1.0E-03
     mixing beta               =       0.2000
     number of iterations used =            8  plain     mixing
     Exchange-correlation=  SLA  PW   PBX  PBC
                           (   1   4   3   4   0   0   0)

     celldm(1)=  10.546849  celldm(2)=   0.000000  celldm(3)=   0.000000
     celldm(4)=   0.000000  celldm(5)=   0.000000  celldm(6)=   0.000000

     crystal axes: (cart. coord. in units of alat)
               a(1) = (   1.000000  -0.000000  -0.000000 )
               a(2) = (  -0.500000   0.866025  -0.000000 )
               a(3) = (   0.000000  -0.000000   2.495552 )

     reciprocal axes: (cart. coord. in units 2 pi/alat)
               b(1) = (  1.000000  0.577350  0.000000 )
               b(2) = (  0.000000  1.154701  0.000000 )
               b(3) = (  0.000000  0.000000  0.400713 )

     PseudoPot. # 1 for O  read from file:
     /home/aldair1809/Programas/QE/q-e-qe-7.3/pseudo/o_pbe_v1.2.uspp.F.UPF
     MD5 check sum: 734c27235a0248c51dbae37a1fbe46ec
     Pseudo is Ultrasoft + core correction, Zval =  6.0
     Generated by new atomic code, or converted to UPF format
     Using radial grid of  737 points,  5 beta functions with:
                l(1) =   0
                l(2) =   0
                l(3) =   1
                l(4) =   1
                l(5) =   2
     Q(r) pseudized with  8 coefficients,  rinner =    0.900   0.900   0.900
                                                       0.900   0.900

     PseudoPot. # 2 for Bi read from file:
     /home/aldair1809/Programas/QE/q-e-qe-7.3/pseudo/bi_pbe_v1.uspp.F.UPF
     MD5 check sum: cceb9f28ec65b6d7ff33140f5b0b1758
     Pseudo is Ultrasoft + core correction, Zval = 15.0
     Generated by new atomic code, or converted to UPF format
     Using radial grid of  899 points,  6 beta functions with:
                l(1) =   0
                l(2) =   0
                l(3) =   1
                l(4) =   1
                l(5) =   2
                l(6) =   2
     Q(r) pseudized with  6 coefficients,  rinner =    1.000   1.000   1.000
                                                       1.000   1.000

     PseudoPot. # 3 for Fe read from file:
     /home/aldair1809/Programas/QE/q-e-qe-7.3/pseudo/fe_pbe_v1.5.uspp.F.UPF
     MD5 check sum: a130daea23fe5165f5d574ae7f82ed95
     Pseudo is Ultrasoft + core correction, Zval = 16.0
     Generated by new atomic code, or converted to UPF format
     Using radial grid of  861 points,  6 beta functions with:
                l(1) =   0
                l(2) =   0
                l(3) =   1
                l(4) =   1
                l(5) =   2
                l(6) =   2
     Q(r) pseudized with  8 coefficients,  rinner =    1.000   1.000   1.000
                                                       1.000   1.000

     PseudoPot. # 4 for Fe read from file:
     /home/aldair1809/Programas/QE/q-e-qe-7.3/pseudo/fe_pbe_v1.5.uspp.F.UPF
     MD5 check sum: a130daea23fe5165f5d574ae7f82ed95
     Pseudo is Ultrasoft + core correction, Zval = 16.0
     Generated by new atomic code, or converted to UPF format
     Using radial grid of  861 points,  6 beta functions with:
                l(1) =   0
                l(2) =   0
                l(3) =   1
                l(4) =   1
                l(5) =   2
                l(6) =   2
     Q(r) pseudized with  8 coefficients,  rinner =    1.000   1.000   1.000
                                                       1.000   1.000

     atomic species   valence    mass     pseudopotential
        O              6.00    15.99940     O ( 1.00)
        Bi            15.00   208.98040     Bi( 1.00)
        Fe1           16.00    55.84500     Fe( 1.00)
        Fe2           16.00    55.84500     Fe( 1.00)

     Starting magnetic structure
     atomic species   magnetization
        O            0.000
        Bi           0.000
        Fe1         -0.800
        Fe2          0.800

      3 Sym. Ops. (no inversion) found

                                    s                        frac. trans.

      isym =  1     identity

 cryst.   s( 1) = (     1          0          0      )
                  (     0          1          0      )
                  (     0          0          1      )

 cart.    s( 1) = (  1.0000000 -0.0000000  0.0000000 )
                  (  0.0000000  1.0000000  0.0000000 )
                  (  0.0000000  0.0000000  1.0000000 )

      isym =  2     120 deg rotation - cryst. axis [0,0,1]

[...]

      isym =  3     120 deg rotation - cryst. axis [0,0,-1]

 cryst.   s( 3) = (    -1         -1          0      )
                  (     1          0          0      )
                  (     0          0          1      )

 cart.    s( 3) = ( -0.5000000  0.8660254  0.0000000 )
                  ( -0.8660254 -0.5000000  0.0000000 )
                  (  0.0000000  0.0000000  1.0000000 )

   Cartesian axes

     site n.     atom                  positions (alat units)
         1           Fe1 tau(   1) = (   0.0000000   0.0000000   1.9384582  )
         2           Fe1 tau(   2) = (  -0.0000005   0.5773506   2.3615556  )
         3           Fe1 tau(   3) = (   0.5000005   0.2886748   1.5200787  )
         4           Fe2 tau(   4) = (   0.5000005   0.2886748   0.2722626  )
         5           Fe2 tau(   5) = (   0.0000000   0.0000000   0.6907071  )
         6           Fe2 tau(   6) = (  -0.0000005   0.5773506   1.1137452  )
         7           Bi  tau(   7) = (   0.5000005   0.2886748   2.0843143  )
         8           Bi  tau(   8) = (  -0.0000005   0.5773506   1.6713980  )
         9           Bi  tau(   9) = (  -0.0000005   0.5773506   0.4235448  )
        10           Bi  tau(  10) = (   0.0000000   0.0000000   0.0002821  )
        11           Bi  tau(  11) = (   0.0000000   0.0000000   1.2481025  )
        12           Bi  tau(  12) = (   0.5000005   0.2886748   0.8364865  )
        13           O   tau(  13) = (  -0.3105904   0.6551932   2.2011299  )
        14           O   tau(  14) = (   0.0878817   0.2694488   2.2011299  )
        15           O   tau(  15) = (   0.2227102   0.8074080   2.2011299  )
        16           O   tau(  16) = (   0.4087504   0.5589755   1.7846473  )
        17           O   tau(  17) = (   0.3115373   0.0745013   1.7846473  )
        18           O   tau(  18) = (   0.7797108   0.2325494   1.7846473  )
        19           O   tau(  19) = (   0.6884743   0.0745026   0.5368244  )
        20           O   tau(  20) = (   0.5912412   0.5589858   0.5368244  )
        21           O   tau(  21) = (   0.2202830   0.2325379   0.5368244  )
        22           O   tau(  22) = (  -0.0823010   0.8482993   0.1166193  )
        23           O   tau(  23) = (  -0.1934983   0.3706010   0.1166193  )
        24           O   tau(  24) = (   0.2757993   0.5131505   0.1166193  )
        25           O   tau(  25) = (   0.1934855   0.3705936   1.3644430  )
        26           O   tau(  26) = (   0.0823138   0.8482919   1.3644430  )
        27           O   tau(  27) = (  -0.2757993   0.5131653   1.3644430  )
        28           O   tau(  28) = (  -0.0878870   0.2694458   0.9533686  )
        29           O   tau(  29) = (   0.3105971   0.6551893   0.9533686  )
        30           O   tau(  30) = (  -0.2227086   0.8074149   0.9533686  )

   Crystallographic axes

     site n.     atom                  positions (cryst. coord.)
         1           Fe1 tau(   1) = (  0.0000000  0.0000000  0.7767652  )
         2           Fe1 tau(   2) = (  0.3333330  0.6666670  0.9463058  )
         3           Fe1 tau(   3) = (  0.6666670  0.3333330  0.6091152  )
         4           Fe2 tau(   4) = (  0.6666670  0.3333330  0.1090991  )
         5           Fe2 tau(   5) = (  0.0000000  0.0000000  0.2767753  )
         6           Fe2 tau(   6) = (  0.3333330  0.6666670  0.4462921  )
         7           Bi  tau(   7) = (  0.6666670  0.3333330  0.8352117  )
         8           Bi  tau(   8) = (  0.3333330  0.6666670  0.6697508  )
         9           Bi  tau(   9) = (  0.3333330  0.6666670  0.1697199  )
        10           Bi  tau(  10) = (  0.0000000  0.0000000  0.0001130  )
        11           Bi  tau(  11) = (  0.0000000  0.0000000  0.5001308  )
        12           Bi  tau(  12) = (  0.6666670  0.3333330  0.3351910  )
        13           O   tau(  13) = (  0.0676856  0.7565520  0.8820212  )
        14           O   tau(  14) = (  0.2434480  0.3111326  0.8820212  )
        15           O   tau(  15) = (  0.6888674  0.9323144  0.8820212  )
        16           O   tau(  16) = (  0.7314750  0.6454493  0.7151312  )
        17           O   tau(  17) = (  0.3545507  0.0860267  0.7151312  )
        18           O   tau(  18) = (  0.9139733  0.2685250  0.7151312  )
        19           O   tau(  19) = (  0.7314884  0.0860282  0.2151125  )
        20           O   tau(  20) = (  0.9139718  0.6454612  0.2151125  )
        21           O   tau(  21) = (  0.3545388  0.2685116  0.2151125  )
        22           O   tau(  22) = (  0.4074649  0.9795317  0.0467309  )
        23           O   tau(  23) = (  0.0204683  0.4279331  0.0467309  )
        24           O   tau(  24) = (  0.5720669  0.5925351  0.0467309  )
        25           O   tau(  25) = (  0.4074478  0.4279246  0.5467499  )
        26           O   tau(  26) = (  0.5720754  0.9795232  0.5467499  )
        27           O   tau(  27) = (  0.0204768  0.5925522  0.5467499  )
        28           O   tau(  28) = (  0.0676775  0.3111292  0.3820271  )
        29           O   tau(  29) = (  0.6888708  0.7565474  0.3820271  )
        30           O   tau(  30) = (  0.2434526  0.9323225  0.3820271  )

     number of k points=    10  Gaussian smearing, width (Ry)=  0.0100
                       cart. coord. in units 2pi/alat
        k(    1) = (   0.0000000   0.0000000   0.0000000), wk =   0.0208333
        k(    2) = (   0.0000000   0.0000000   0.1335710), wk =   0.0416667
        k(    3) = (   0.0000000   0.2886751   0.0000000), wk =   0.1250000
        k(    4) = (   0.0000000   0.2886751   0.1335710), wk =   0.1250000
        k(    5) = (   0.0000000  -0.5773503   0.0000000), wk =   0.0625000
        k(    6) = (   0.0000000  -0.5773503   0.1335710), wk =   0.1250000
        k(    7) = (   0.2500000   0.4330127   0.0000000), wk =   0.1250000
        k(    8) = (   0.2500000   0.4330127   0.1335710), wk =   0.1250000
        k(    9) = (  -0.2500000   0.1443376   0.1335710), wk =   0.1250000
        k(   10) = (   0.2500000  -0.4330127  -0.1335710), wk =   0.1250000

                       cryst. coord.
        k(    1) = (   0.0000000   0.0000000   0.0000000), wk =   0.0208333
        k(    2) = (   0.0000000   0.0000000   0.3333333), wk =   0.0416667
        k(    3) = (   0.0000000   0.2500000   0.0000000), wk =   0.1250000
        k(    4) = (   0.0000000   0.2500000   0.3333333), wk =   0.1250000
        k(    5) = (   0.0000000  -0.5000000   0.0000000), wk =   0.0625000
        k(    6) = (   0.0000000  -0.5000000   0.3333333), wk =   0.1250000
        k(    7) = (   0.2500000   0.2500000   0.0000000), wk =   0.1250000
        k(    8) = (   0.2500000   0.2500000   0.3333333), wk =   0.1250000
        k(    9) = (  -0.2500000   0.2500000   0.3333333), wk =   0.1250000
        k(   10) = (   0.2500000  -0.5000000  -0.3333333), wk =   0.1250000

     Check: negative core charge=   -0.000640
     Generating pointlists ...
     new r_m :   0.1458 (alat units)  1.5374 (a.u.) for type    1
     new r_m :   0.1687 (alat units)  1.7788 (a.u.) for type    2
     new r_m :   0.1458 (alat units)  1.5374 (a.u.) for type    3
     new r_m :   0.1458 (alat units)  1.5374 (a.u.) for type    4

     Initial potential from superposition of free atoms

     starting charge  281.99969, renormalised to  294.00000

     negative rho (up, down):  1.188E-01 1.188E-01
     Starting wfcs are  204 randomized atomic wfcs

     Self-consistent Calculation

     iteration #  1     ecut=    25.00 Ry     beta= 0.20
     CG style diagonalization
     ethr =  1.00E-02,  avg # of iterations =  2.6

     negative rho (up, down):  1.151E-01 1.151E-01

     total energy              =   -3187.42991910 Ry
     estimated scf accuracy    <      22.92459991 Ry

     total magnetization       =    -0.00 Bohr mag/cell
     absolute magnetization    =    30.61 Bohr mag/cell

[...]

     iteration #  8     ecut=    25.00 Ry     beta= 0.20
     CG style diagonalization
     c_bands:  2 eigenvalues not converged
     c_bands:  3 eigenvalues not converged
     c_bands:  3 eigenvalues not converged
     c_bands:  3 eigenvalues not converged
     c_bands:  4 eigenvalues not converged
     c_bands:  4 eigenvalues not converged
     c_bands:  2 eigenvalues not converged
     c_bands:  2 eigenvalues not converged
     c_bands:  2 eigenvalues not converged
     c_bands:  2 eigenvalues not converged
     c_bands:  4 eigenvalues not converged
     c_bands:  5 eigenvalues not converged
     c_bands:  4 eigenvalues not converged
     c_bands:  3 eigenvalues not converged
     c_bands:  2 eigenvalues not converged
     c_bands:  2 eigenvalues not converged
     c_bands:  1 eigenvalues not converged
     c_bands:  2 eigenvalues not converged
     ethr =  3.67E-05,  avg # of iterations =  4.1

[...]

     iteration # 11     ecut=    25.00 Ry     beta= 0.20
     CG style diagonalization
     ethr =  2.17E-05,  avg # of iterations =  3.2

[...]

     total energy              =   -3193.11406146 Ry
     estimated scf accuracy    <       0.00281802 Ry

[...]

     iteration # 14     ecut=    25.00 Ry     beta= 0.20
     CG style diagonalization
     c_bands:  1 eigenvalues not converged
     c_bands:  1 eigenvalues not converged
     c_bands:  1 eigenvalues not converged
     c_bands:  1 eigenvalues not converged
     ethr =  9.59E-07,  avg # of iterations =  3.1

     negative rho (up, down):  1.116E-01 1.116E-01

     Magnetic moment per site:
     atom:    1    charge:   13.0480    magn:   -3.7139    constr:    0.0000
     atom:    2    charge:   13.0538    magn:   -3.6000    constr:    0.0000
     atom:    3    charge:   13.0723    magn:   -3.5888    constr:    0.0000
     atom:    4    charge:   13.0727    magn:    3.5883    constr:    0.0000
     atom:    5    charge:   13.0486    magn:    3.7135    constr:    0.0000
     atom:    6    charge:   13.0542    magn:    3.5997    constr:    0.0000
     atom:    7    charge:   10.4863    magn:   -0.0165    constr:    0.0000
     atom:    8    charge:   10.4856    magn:   -0.0130    constr:    0.0000
     atom:    9    charge:   10.4856    magn:    0.0130    constr:    0.0000
     atom:   10    charge:   10.4885    magn:   -0.0040    constr:    0.0000
     atom:   11    charge:   10.4885    magn:    0.0040    constr:    0.0000
     atom:   12    charge:   10.4863    magn:    0.0165    constr:    0.0000
     atom:   13    charge:    5.3969    magn:   -0.2161    constr:    0.0000
     atom:   14    charge:    5.3969    magn:   -0.2161    constr:    0.0000
     atom:   15    charge:    5.3969    magn:   -0.2161    constr:    0.0000
     atom:   16    charge:    5.3944    magn:   -0.2292    constr:    0.0000
     atom:   17    charge:    5.3944    magn:   -0.2292    constr:    0.0000
     atom:   18    charge:    5.3944    magn:   -0.2292    constr:    0.0000
     atom:   19    charge:    5.3946    magn:    0.2292    constr:    0.0000
     atom:   20    charge:    5.3946    magn:    0.2292    constr:    0.0000
     atom:   21    charge:    5.3946    magn:    0.2292    constr:    0.0000
     atom:   22    charge:    5.3863    magn:    0.0717    constr:    0.0000
     atom:   23    charge:    5.3863    magn:    0.0717    constr:    0.0000
     atom:   24    charge:    5.3863    magn:    0.0717    constr:    0.0000
     atom:   25    charge:    5.3862    magn:   -0.0716    constr:    0.0000
     atom:   26    charge:    5.3862    magn:   -0.0716    constr:    0.0000
     atom:   27    charge:    5.3862    magn:   -0.0716    constr:    0.0000
     atom:   28    charge:    5.3969    magn:    0.2162    constr:    0.0000
     atom:   29    charge:    5.3969    magn:    0.2162    constr:    0.0000
     atom:   30    charge:    5.3969    magn:    0.2162    constr:    0.0000

     End of self-consistent calculation

 ------ SPIN UP ------------

          k = 0.0000 0.0000 0.0000 (  5411 PWs)   bands (ev):

   -79.6709 -79.5107 -79.3814 -74.6774 -74.6634 -74.5425 -45.5177 -45.4716
   -45.4716 -45.3316 -45.3316 -45.3235 -45.2736 -45.1704 -45.1704 -40.6870
   -40.6656 -40.6367 -40.6366 -40.6184 -40.6184 -40.5511 -40.5068 -40.5068
   -11.2538 -11.2538 -11.2162 -11.2162 -11.1967 -11.1967 -11.1665 -11.1511
   -11.1411 -11.1411 -11.1375 -11.1375 -11.1266 -11.1266 -11.1070 -11.0901
   -11.0818 -11.0818 -11.0754 -11.0754 -11.0700 -11.0700 -11.0654 -11.0595
   -11.0595 -11.0508 -11.0369 -11.0369 -11.0219 -11.0219  -7.9808  -7.6030
    -7.5071  -6.7505  -6.7000  -6.3036  -6.3035  -6.1789  -6.1788  -6.1787
    -6.0766  -6.0765  -5.9815  -5.9814  -5.8258  -5.8258  -5.6573  -5.6573
     0.8208   1.0588   1.1365   1.9079   2.0412   2.7921   4.9467   4.9467
     5.0662   5.4404   5.4404   5.5435   5.5436   5.5472   5.7317   5.7375
     5.7375   5.9522   6.0119   6.0119   6.2035   6.2036   6.2689   6.4283
     6.4284   6.4300   6.5246   6.7364   6.7364   7.0194   7.0194   7.1760
     7.3372   7.6132   7.6132   7.7233   7.8485   7.8486   7.9642   7.9642
     8.1569   8.2911   8.3434   8.3434   8.5095   8.5095   8.5261   8.6451
     8.6627   8.6627   8.8248   8.8249   8.9762   8.9762   9.3217   9.3218
     9.3718   9.3719   9.3719   9.4296   9.4297   9.7741   9.7742  10.0964
    10.1880  10.1880  10.2604  10.4323  10.5295  10.6644  10.7384  10.8817
    10.8817  11.5248  11.5249  12.0515  12.0515  12.2750  12.2773  12.2773
    12.3408  12.3618  12.4362  12.4362  13.2110  13.2110  13.8372  13.8372
    14.3874  14.3874  15.0659  15.1813  15.2860  15.3328  16.3798  16.3799
    16.5163  16.5163  16.5598  16.5598  16.8543  16.9135  17.1076  17.1076
    17.1837  17.1837  17.5957  17.5957  18.2994  19.6022  19.8232  19.9930
    20.6975  20.6975  20.9815  21.0596  21.7008  21.7008  21.8083  21.8085
    22.1327  22.1330  22.8653  23.0378  23.0570  23.0577  23.2050  23.7367

     occupation numbers
     1.0000   1.0000   1.0000   1.0000   1.0000   1.0000   1.0000   1.0000
     1.0000   1.0000   1.0000   1.0000   1.0000   1.0000   1.0000   1.0000
     1.0000   1.0000   1.0000   1.0000   1.0000   1.0000   1.0000   1.0000
     1.0000   1.0000   1.0000   1.0000   1.0000   1.0000   1.0000   1.0000
     1.0000   1.0000   1.0000   1.0000   1.0000   1.0000   1.0000   1.0000
     1.0000   1.0000   1.0000   1.0000   1.0000   1.0000   1.0000   1.0000
     1.0000   1.0000   1.0000   1.0000   1.0000   1.0000   1.0000   1.0000
     1.0000   1.0000   1.0000   1.0000   1.0000   1.0000   1.0000   1.0000
     1.0000   1.0000   1.0000   1.0000   1.0000   1.0000   1.0000   1.0000
     1.0000   1.0000   1.0000   1.0000   1.0000   1.0000   1.0000   1.0000
     1.0000   1.0000   1.0000   1.0000   1.0000   1.0000   1.0000   1.0000
     1.0000   1.0000   1.0000   1.0000   1.0000   1.0000   1.0000   1.0000
     1.0000   1.0000   1.0000   1.0000   1.0000   1.0000   1.0000   1.0000
     1.0000   1.0000   1.0000   1.0000   1.0000   1.0000   1.0000   1.0000
     1.0000   1.0000   1.0000   1.0000   1.0000   1.0000   1.0000   1.0000
     1.0000   1.0000   1.0000   1.0000   1.0000   1.0000   1.0000   1.0000
     1.0000   1.0000   1.0000   1.0000   1.0000   1.0000   1.0000   1.0000
     1.0000   1.0000   1.0000   1.0000   1.0000   1.0000   1.0000   1.0000
     1.0000   0.9933   0.9933   0.0013   0.0013   0.0000   0.0000   0.0000
     0.0000   0.0000   0.0000   0.0000   0.0000   0.0000   0.0000   0.0000
     0.0000   0.0000   0.0000   0.0000   0.0000   0.0000   0.0000   0.0000
     0.0000   0.0000   0.0000   0.0000   0.0000   0.0000   0.0000   0.0000
     0.0000   0.0000   0.0000   0.0000   0.0000   0.0000   0.0000   0.0000
     0.0000   0.0000   0.0000   0.0000   0.0000   0.0000   0.0000   0.0000
     0.0000   0.0000   0.0000   0.0000   0.0000   0.0000   0.0000   0.0000

[...]

          k =-0.2500 0.1443 0.1336 (  5360 PWs)   bands (ev):

[...]

 ------ SPIN DOWN ----------

[...]

          k =-0.2500 0.1443 0.1336 (  5360 PWs)   bands (ev):

[...]

          k = 0.2500-0.4330-0.1336 (  5344 PWs)   bands (ev):

   -79.6656 -79.5081 -79.3782 -74.6786 -74.6626 -74.5422 -45.5049 -45.4590
   -45.4563 -45.3211 -45.3185 -45.3137 -45.2620 -45.1596 -45.1569 -40.6803
   -40.6600 -40.6306 -40.6270 -40.6101 -40.6077 -40.5433 -40.4990 -40.4966
   -11.2303 -11.2241 -11.2148 -11.2055 -11.1861 -11.1789 -11.1674 -11.1539
   -11.1486 -11.1396 -11.1318 -11.1218 -11.1188 -11.1121 -11.1049 -11.0971
   -11.0905 -11.0849 -11.0823 -11.0769 -11.0736 -11.0730 -11.0694 -11.0661
   -11.0608 -11.0501 -11.0467 -11.0413 -11.0371 -11.0321  -7.4346  -7.2521
    -7.0247  -6.9585  -6.8458  -6.6883  -6.4541  -6.4221  -6.3350  -6.2622
    -6.1709  -6.1206  -6.0913  -5.9905  -5.9470  -5.8380  -5.7349  -5.6950
     1.1052   1.1759   1.3179   1.4389   1.6394   1.7342   5.1670   5.2416
     5.3751   5.4421   5.6488   5.6970   5.7711   5.8404   5.9413   6.0320
     6.0991   6.2141   6.3057   6.3486   6.4116   6.5017   6.5508   6.7009
     6.7740   6.8716   6.9623   7.0249   7.1206   7.2443   7.3449   7.4106
     7.4822   7.5724   7.6422   7.7120   7.7341   7.8471   7.8726   7.9545
     8.0642   8.1156   8.1997   8.2558   8.3336   8.3993   8.4868   8.5638
     8.5912   8.6942   8.7586   8.7951   8.8932   8.9474   9.0682   9.0972
     9.1884   9.2922   9.3129   9.3523   9.4484   9.5006   9.5817   9.9106
    10.0045  10.1983  10.3300  10.4942  10.5371  10.6281  10.7833  10.8654
    10.9571  11.2291  11.3885  12.0503  12.1234  12.1682  12.2732  12.3501
    12.4180  12.5080  12.5555  12.6804  13.2319  13.3766  13.5438  13.6954
    14.0236  14.1771  14.7558  14.8142  14.9613  15.0791  15.2548  15.3417
    15.9518  16.0221  16.1495  16.3373  16.4644  16.5961  16.7839  16.8856
    16.9548  16.9966  17.1679  17.2354  19.8904  20.4067  20.5445  20.9664
    21.2594  21.4003  21.6961  21.7952  21.9968  22.1690  22.2402  22.4622
    22.5963  22.7228  22.7928  22.9083  22.9688  23.0933  23.2482  23.3240

     occupation numbers
     1.0000   1.0000   1.0000   1.0000   1.0000   1.0000   1.0000   1.0000
     1.0000   1.0000   1.0000   1.0000   1.0000   1.0000   1.0000   1.0000
     1.0000   1.0000   1.0000   1.0000   1.0000   1.0000   1.0000   1.0000
     1.0000   1.0000   1.0000   1.0000   1.0000   1.0000   1.0000   1.0000
     1.0000   1.0000   1.0000   1.0000   1.0000   1.0000   1.0000   1.0000
     1.0000   1.0000   1.0000   1.0000   1.0000   1.0000   1.0000   1.0000
     1.0000   1.0000   1.0000   1.0000   1.0000   1.0000   1.0000   1.0000
     1.0000   1.0000   1.0000   1.0000   1.0000   1.0000   1.0000   1.0000
     1.0000   1.0000   1.0000   1.0000   1.0000   1.0000   1.0000   1.0000
     1.0000   1.0000   1.0000   1.0000   1.0000   1.0000   1.0000   1.0000
     1.0000   1.0000   1.0000   1.0000   1.0000   1.0000   1.0000   1.0000
     1.0000   1.0000   1.0000   1.0000   1.0000   1.0000   1.0000   1.0000
     1.0000   1.0000   1.0000   1.0000   1.0000   1.0000   1.0000   1.0000
     1.0000   1.0000   1.0000   1.0000   1.0000   1.0000   1.0000   1.0000
     1.0000   1.0000   1.0000   1.0000   1.0000   1.0000   1.0000   1.0000
     1.0000   1.0000   1.0000   1.0000   1.0000   1.0000   1.0000   1.0000
     1.0000   1.0000   1.0000   1.0000   1.0000   1.0000   1.0000   1.0000
     1.0000   1.0000   1.0000   1.0000   1.0000   1.0000   1.0000   1.0000
     1.0000   1.0000   0.9999   0.0014   0.0001   0.0000   0.0000   0.0000
     0.0000   0.0000   0.0000   0.0000   0.0000   0.0000   0.0000   0.0000
     0.0000   0.0000   0.0000   0.0000   0.0000   0.0000   0.0000   0.0000
     0.0000   0.0000   0.0000   0.0000   0.0000   0.0000   0.0000   0.0000
     0.0000   0.0000   0.0000   0.0000   0.0000   0.0000   0.0000   0.0000
     0.0000   0.0000   0.0000   0.0000   0.0000   0.0000   0.0000   0.0000
     0.0000   0.0000   0.0000   0.0000   0.0000   0.0000   0.0000   0.0000

     the Fermi energy is    11.7626 ev

!    total energy              =   -3193.11377898 Ry
     estimated scf accuracy    <       0.00089535 Ry
     smearing contrib. (-TS)   =      -0.00022577 Ry
     internal energy E=F+TS    =   -3193.11355321 Ry

     The total energy is F=E-TS. E is the sum of the following terms:
     one-electron contribution =   -1311.52500350 Ry
     hartree contribution      =     840.63885119 Ry
     xc contribution           =    -694.57826694 Ry
     ewald contribution        =   -2027.64913396 Ry

     total magnetization       =    -0.00 Bohr mag/cell
     absolute magnetization    =    27.59 Bohr mag/cell

     convergence has been achieved in  14 iterations

     Writing output data file /home/aldair1809/Documentos/QE/4BFO/UHUBBARD/temp/kpoints_ecutwfc_4.in/bifeo3-scf.save/

     General routines

     Parallel routines

   This run was terminated on:  22:32:24  29Sep2024

   JOB DONE.