     Program PWSCF v.6.7MaX starts on 26Oct2024 at 20:34:53

     R & G space division:  proc/nbgrp/npool/nimage =       4
     Waiting for input...
     Reading input from standard input

     Current dimensions of program PWSCF are:
     Max number of different atomic species (ntypx) = 10
     Max number of k-points (npk) =  40000
     Max angular momentum in pseudopotentials (lmaxx) =  3
     Message from routine iosys:
     wrong startingpot: use default (1)

     bravais-lattice index     =            4
     lattice parameter (alat)  =      10.4531  a.u.
     unit-cell volume          =    2440.6662 (a.u.)^3
     number of atoms/cell      =           30
     number of atomic types    =            4
     number of electrons       =       294.00
     number of Kohn-Sham states=          200
     kinetic-energy cutoff     =      35.0000  Ry
     charge density cutoff     =     140.0000  Ry
     scf convergence threshold =      1.0E-05
     mixing beta               =       0.4000
     number of iterations used =            8  plain     mixing
     Exchange-correlation=  SLA  PW   PBX  PBC
                           (   1   4   3   4   0   0   0)

     celldm(1)=  10.453102  celldm(2)=   0.000000  celldm(3)=   2.467415
     celldm(4)=   0.000000  celldm(5)=   0.000000  celldm(6)=   0.000000

     crystal axes: (cart. coord. in units of alat)
               a(1) = (   1.000000   0.000000   0.000000 )
               a(2) = (  -0.500000   0.866025   0.000000 )
               a(3) = (   0.000000   0.000000   2.467415 )

     reciprocal axes: (cart. coord. in units 2 pi/alat)
               b(1) = (  1.000000  0.577350 -0.000000 )
               b(2) = (  0.000000  1.154701  0.000000 )
               b(3) = (  0.000000 -0.000000  0.405282 )

     PseudoPot. # 1 for O  read from file:
     /home/aldair1809/Programas/QE/q-e-qe-7.3/pseudo/o_pbe_v1.2.uspp.F.UPF
     MD5 check sum: 734c27235a0248c51dbae37a1fbe46ec
     Pseudo is Ultrasoft + core correction, Zval =  6.0
     Generated by new atomic code, or converted to UPF format
     Using radial grid of  737 points,  5 beta functions with:
                l(1) =   0
                l(2) =   0
                l(3) =   1
                l(4) =   1
                l(5) =   2
     Q(r) pseudized with  8 coefficients,  rinner =    0.900   0.900   0.900
                                                       0.900   0.900

     PseudoPot. # 2 for Bi read from file:
     /home/aldair1809/Programas/QE/q-e-qe-7.3/pseudo/bi_pbe_v1.uspp.F.UPF
     MD5 check sum: cceb9f28ec65b6d7ff33140f5b0b1758
     Pseudo is Ultrasoft + core correction, Zval = 15.0
     Generated by new atomic code, or converted to UPF format
     Using radial grid of  899 points,  6 beta functions with:
                l(1) =   0
                l(2) =   0
                l(3) =   1
                l(4) =   1
                l(5) =   2
                l(6) =   2
     Q(r) pseudized with  6 coefficients,  rinner =    1.000   1.000   1.000
                                                       1.000   1.000

     PseudoPot. # 3 for Fe read from file:
     /home/aldair1809/Programas/QE/q-e-qe-7.3/pseudo/fe_pbe_v1.5.uspp.F.UPF
     MD5 check sum: a130daea23fe5165f5d574ae7f82ed95
     Pseudo is Ultrasoft + core correction, Zval = 16.0
     Generated by new atomic code, or converted to UPF format
     Using radial grid of  861 points,  6 beta functions with:
                l(1) =   0
                l(2) =   0
                l(3) =   1
                l(4) =   1
                l(5) =   2
                l(6) =   2
     Q(r) pseudized with  8 coefficients,  rinner =    1.000   1.000   1.000
                                                       1.000   1.000

     PseudoPot. # 4 for Fe read from file:
     /home/aldair1809/Programas/QE/q-e-qe-7.3/pseudo/fe_pbe_v1.5.uspp.F.UPF
     MD5 check sum: a130daea23fe5165f5d574ae7f82ed95
     Pseudo is Ultrasoft + core correction, Zval = 16.0
     Generated by new atomic code, or converted to UPF format
     Using radial grid of  861 points,  6 beta functions with:
                l(1) =   0
                l(2) =   0
                l(3) =   1
                l(4) =   1
                l(5) =   2
                l(6) =   2
     Q(r) pseudized with  8 coefficients,  rinner =    1.000   1.000   1.000
                                                       1.000   1.000

     atomic species   valence    mass     pseudopotential
        O              6.00    15.99940     O ( 1.00)
        Bi            15.00   208.98040     Bi( 1.00)
        Fe1           16.00    55.84500     Fe( 1.00)
        Fe2           16.00    55.84500     Fe( 1.00)

     Starting magnetic structure
     atomic species   magnetization
        O            0.000
        Bi           0.000
        Fe1         -0.800
        Fe2          0.800

     Simplified LDA+U calculation (l_max = 2) with parameters (eV):
     atomic species    L          U    alpha       J0     beta
        Fe1            2     0.0000   0.0000   0.0000   0.0000
        Fe2            2     0.0000   0.0000   0.0000   0.0000

      3 Sym. Ops. (no inversion) found

                                    s                        frac. trans.

      isym =  1     identity

 cryst.   s( 1) = (     1          0          0      )
                  (     0          1          0      )
                  (     0          0          1      )

 cart.    s( 1) = (  1.0000000  0.0000000  0.0000000 )
                  (  0.0000000  1.0000000  0.0000000 )
                  (  0.0000000  0.0000000  1.0000000 )

      isym =  2     120 deg rotation - cryst. axis [0,0,1]

[...]

      isym =  3     120 deg rotation - cryst. axis [0,0,-1]

 cryst.   s( 3) = (    -1         -1          0      )
                  (     1          0          0      )
                  (     0          0          1      )

 cart.    s( 3) = ( -0.5000000  0.8660254  0.0000000 )
                  ( -0.8660254 -0.5000000  0.0000000 )
                  (  0.0000000  0.0000000  1.0000000 )

     point group C_3 (3)
     there are  3 classes
     the character table:

       E     C3    C3^2
A      1.00  1.00  1.00
E      1.00 -0.50 -0.50
E*     1.00 -0.50 -0.50
     imaginary part
A      0.00  0.00  0.00
E      0.00  0.87 -0.87
E*     0.00 -0.87  0.87

     the symmetry operations in each class and the name of the first element:

     E        1
          identity
     C3       2
          120 deg rotation - cryst. axis [0,0,1]
     C3^2     3
          120 deg rotation - cryst. axis [0,0,-1]

   Cartesian axes

     site n.     atom                  positions (alat units)
         1           Fe1 tau(   1) = (   0.0000000   0.0000000   1.9173194  )
         2           Fe1 tau(   2) = (  -0.0000005   0.5773506   2.3408318  )
         3           Fe1 tau(   3) = (   0.5000005   0.2886748   1.4987656  )
         4           Fe2 tau(   4) = (   0.5000005   0.2886748   0.2650306  )
         5           Fe2 tau(   5) = (   0.0000000   0.0000000   0.6836385  )
         6           Fe2 tau(   6) = (  -0.0000005   0.5773506   1.1071829  )
         7           Bi  tau(   7) = (   0.5000005   0.2886748   2.0704508  )
         8           Bi  tau(   8) = (  -0.0000005   0.5773506   1.6683657  )
         9           Bi  tau(   9) = (  -0.0000005   0.5773506   0.4345959  )
        10           Bi  tau(  10) = (   0.0000000   0.0000000   0.0112133  )
        11           Bi  tau(  11) = (   0.0000000   0.0000000   1.2449306  )
        12           Bi  tau(  12) = (   0.5000005   0.2886748   0.8366940  )
        13           O   tau(  13) = (  -0.3015234   0.6617768   2.1713309  )
        14           O   tau(  14) = (   0.0776467   0.2740092   2.1713309  )
        15           O   tau(  15) = (   0.2238783   0.7962639   2.1713309  )
        16           O   tau(  16) = (   0.4195843   0.5622547   1.7587968  )
        17           O   tau(  17) = (   0.3032805   0.0822442   1.7587968  )
        18           O   tau(  18) = (   0.7771337   0.2215274   1.7587968  )
        19           O   tau(  19) = (   0.6967279   0.0822438   0.5250654  )
        20           O   tau(  20) = (   0.5804103   0.5622631   0.5250654  )
        21           O   tau(  21) = (   0.2228602   0.2215194   0.5250654  )
        22           O   tau(  22) = (  -0.0757596   0.8510068   0.1130324  )
        23           O   tau(  23) = (  -0.1991137   0.3749123   0.1130324  )
        24           O   tau(  24) = (   0.2748733   0.5061317   0.1130324  )
        25           O   tau(  25) = (   0.1991050   0.3749017   1.3467955  )
        26           O   tau(  26) = (   0.0757731   0.8510045   1.3467955  )
        27           O   tau(  27) = (  -0.2748781   0.5061446   1.3467955  )
        28           O   tau(  28) = (  -0.0776631   0.2740052   0.9376559  )
        29           O   tau(  29) = (   0.3015366   0.6617637   0.9376559  )
        30           O   tau(  30) = (  -0.2238720   0.7962811   0.9376559  )

   Crystallographic axes

     site n.     atom                  positions (cryst. coord.)
         1           Fe1 tau(   1) = (  0.0000000  0.0000000  0.7770559  )
         2           Fe1 tau(   2) = (  0.3333330  0.6666670  0.9486980  )
         3           Fe1 tau(   3) = (  0.6666670  0.3333330  0.6074234  )
         4           Fe2 tau(   4) = (  0.6666670  0.3333330  0.1074122  )
         5           Fe2 tau(   5) = (  0.0000000  0.0000000  0.2770667  )
         6           Fe2 tau(   6) = (  0.3333330  0.6666670  0.4487218  )
         7           Bi  tau(   7) = (  0.6666670  0.3333330  0.8391174  )
         8           Bi  tau(   8) = (  0.3333330  0.6666670  0.6761593  )
         9           Bi  tau(   9) = (  0.3333330  0.6666670  0.1761341  )
        10           Bi  tau(  10) = (  0.0000000  0.0000000  0.0045446  )
        11           Bi  tau(  11) = (  0.0000000  0.0000000  0.5045485  )
        12           Bi  tau(  12) = (  0.6666670  0.3333330  0.3390974  )
        13           O   tau(  13) = (  0.0805536  0.7641541  0.8800023  )
        14           O   tau(  14) = (  0.2358459  0.3163985  0.8800023  )
        15           O   tau(  15) = (  0.6836015  0.9194464  0.8800023  )
        16           O   tau(  16) = (  0.7442022  0.6492358  0.7128095  )
        17           O   tau(  17) = (  0.3507642  0.0949674  0.7128095  )
        18           O   tau(  18) = (  0.9050326  0.2557978  0.7128095  )
        19           O   tau(  19) = (  0.7442114  0.0949669  0.2127998  )
        20           O   tau(  20) = (  0.9050331  0.6492455  0.2127998  )
        21           O   tau(  21) = (  0.3507545  0.2557886  0.2127998  )
        22           O   tau(  22) = (  0.4155694  0.9826580  0.0458101  )
        23           O   tau(  23) = (  0.0173420  0.4329115  0.0458101  )
        24           O   tau(  24) = (  0.5670885  0.5844306  0.0458101  )
        25           O   tau(  25) = (  0.4155546  0.4328992  0.5458326  )
        26           O   tau(  26) = (  0.5671008  0.9826554  0.5458326  )
        27           O   tau(  27) = (  0.0173446  0.5844454  0.5458326  )
        28           O   tau(  28) = (  0.0805338  0.3163939  0.3800155  )
[...]
  0.040  0.302  0.000  0.045  0.613
  0.302  0.040  0.000  0.613  0.045
  0.223  0.434  0.000  0.145  0.198
  0.434  0.223  0.000  0.198  0.145
    occupations:
  0.993 -0.000 -0.000 -0.000 -0.000
 -0.000  0.993 -0.000 -0.001 -0.002
 -0.000 -0.000  0.993 -0.002  0.001
 -0.000 -0.001 -0.002  0.992  0.000
 -0.000 -0.002  0.001  0.000  0.992
atomic mag. moment =  -3.81364
atom    2   Tr[ns(na)] (up, down, total) =   1.25263  4.91386  6.16649
   spin  1
    eigenvalues:
  0.179  0.193  0.193  0.344  0.344
    eigenvectors:
  1.000  0.000  0.000  0.000  0.000
  0.000  0.191  0.073  0.239  0.497
  0.000  0.073  0.191  0.497  0.239
  0.000  0.103  0.632  0.000  0.264
  0.000  0.632  0.103  0.264  0.000
    occupations:
  0.179 -0.000 -0.000 -0.000 -0.000
 -0.000  0.304 -0.000 -0.054  0.039
 -0.000 -0.000  0.304  0.039  0.054
 -0.000 -0.054  0.039  0.233  0.000
 -0.000  0.039  0.054  0.000  0.233
   spin  2
    eigenvalues:
  0.969  0.969  0.991  0.992  0.992
    eigenvectors:
  0.000  0.000  1.000  0.000  0.000
  0.478  0.173  0.000  0.299  0.049
  0.173  0.478  0.000  0.049  0.299
  0.004  0.344  0.000  0.044  0.608
  0.344  0.004  0.000  0.608  0.044
    occupations:
  0.991 -0.000 -0.000 -0.000 -0.000
 -0.000  0.977 -0.000  0.007 -0.009
 -0.000 -0.000  0.977 -0.009 -0.007
 -0.000  0.007 -0.009  0.984  0.000
 -0.000 -0.009 -0.007  0.000  0.984
atomic mag. moment =  -3.66122
atom    3   Tr[ns(na)] (up, down, total) =   1.26880  4.91890  6.18770
   spin  1
    eigenvalues:
  0.198  0.198  0.208  0.332  0.332
    eigenvectors:
  0.000  0.000  1.000  0.000  0.000
  0.362  0.241  0.000  0.294  0.104
  0.241  0.362  0.000  0.104  0.294
  0.024  0.374  0.000  0.088  0.514
  0.374  0.024  0.000  0.514  0.088
    occupations:
  0.208 -0.000 -0.000 -0.000 -0.000
 -0.000  0.251 -0.000 -0.053  0.039
 -0.000 -0.000  0.251  0.039  0.053
 -0.000 -0.053  0.039  0.279  0.000
 -0.000  0.039  0.053  0.000  0.279
   spin  2
    eigenvalues:
  0.973  0.973  0.990  0.991  0.991
    eigenvectors:
  0.000  0.000  1.000  0.000  0.000
  0.456  0.089  0.000  0.340  0.114
  0.089  0.456  0.000  0.114  0.340
  0.044  0.411  0.000  0.023  0.523
  0.411  0.044  0.000  0.523  0.023
    occupations:
  0.990 -0.000 -0.000 -0.000 -0.000
 -0.000  0.981 -0.000  0.006 -0.007
 -0.000 -0.000  0.981 -0.007 -0.006
 -0.000  0.006 -0.007  0.983  0.000
 -0.000 -0.007 -0.006  0.000  0.983
atomic mag. moment =  -3.65010
atom    4   Tr[ns(na)] (up, down, total) =   4.91906  1.27035  6.18941
   spin  1
    eigenvalues:
  0.973  0.973  0.990  0.991  0.991
    eigenvectors:
  0.000  0.000  1.000  0.000  0.000
  0.010  0.535  0.000  0.050  0.404
  0.535  0.010  0.000  0.404  0.050
  0.190  0.265  0.000  0.126  0.419
  0.265  0.190  0.000  0.419  0.126
    occupations:
  0.990 -0.000 -0.000 -0.000 -0.000
 -0.000  0.981 -0.000 -0.006 -0.007
 -0.000 -0.000  0.981 -0.007  0.006
 -0.000 -0.006 -0.007  0.983  0.000
 -0.000 -0.007  0.006  0.000  0.983
   spin  2
    eigenvalues:
  0.199  0.199  0.209  0.332  0.332
    eigenvectors:
  0.000  0.000  1.000  0.000  0.000
  0.001  0.602  0.000  0.001  0.396
  0.602  0.001  0.000  0.396  0.001
  0.157  0.240  0.000  0.182  0.421
  0.240  0.157  0.000  0.421  0.182
    occupations:
  0.209 -0.000 -0.000 -0.000 -0.000
 -0.000  0.252 -0.000  0.053  0.039
 -0.000 -0.000  0.252  0.039 -0.053
 -0.000  0.053  0.039  0.279  0.000
 -0.000  0.039 -0.053  0.000  0.279
atomic mag. moment =   3.64872
atom    5   Tr[ns(na)] (up, down, total) =   4.96210  1.14660  6.10870
   spin  1
    eigenvalues:
  0.990  0.990  0.993  0.994  0.994
    eigenvectors:
  0.000  0.000  1.000  0.000  0.000
  0.336  0.005  0.000  0.440  0.219
  0.005  0.336  0.000  0.219  0.440
  0.141  0.518  0.000  0.000  0.341
  0.518  0.141  0.000  0.341  0.000
    occupations:
  0.993 -0.000 -0.000 -0.000 -0.000
 -0.000  0.993 -0.000  0.001 -0.002
 -0.000 -0.000  0.993 -0.002 -0.001
 -0.000  0.001 -0.002  0.992  0.000
 -0.000 -0.002 -0.001  0.000  0.992
   spin  2
    eigenvalues:
  0.166  0.173  0.173  0.317  0.317
    eigenvectors:
  1.000  0.000  0.000  0.000  0.000
  0.000  0.366  0.020  0.587  0.026
  0.000  0.020  0.366  0.026  0.587
  0.000  0.060  0.553  0.043  0.343
  0.000  0.553  0.060  0.343  0.043
    occupations:
  0.166 -0.000 -0.000 -0.000 -0.000
 -0.000  0.261 -0.000 -0.036  0.060
 -0.000 -0.000  0.261  0.060  0.036
 -0.000 -0.036  0.060  0.229  0.000
 -0.000  0.060  0.036  0.000  0.229
atomic mag. moment =   3.81550
atom    6   Tr[ns(na)] (up, down, total) =   4.91400  1.25157  6.16557
   spin  1
    eigenvalues:
  0.969  0.969  0.991  0.992  0.992
    eigenvectors:
  0.000  0.000  1.000  0.000  0.000
  0.009  0.642  0.000  0.071  0.277
  0.642  0.009  0.000  0.277  0.071
  0.180  0.168  0.000  0.125  0.527
  0.168  0.180  0.000  0.527  0.125
    occupations:
  0.991 -0.000 -0.000 -0.000 -0.000
 -0.000  0.977 -0.000 -0.007 -0.009
 -0.000 -0.000  0.977 -0.009  0.007
 -0.000 -0.007 -0.009  0.984  0.000
 -0.000 -0.009  0.007  0.000  0.984
   spin  2
    eigenvalues:
  0.179  0.193  0.193  0.344  0.344
    eigenvectors:
  1.000  0.000  0.000  0.000  0.000
  0.000  0.004  0.260  0.005  0.730
  0.000  0.260  0.004  0.730  0.005
  0.000  0.172  0.563  0.114  0.151
  0.000  0.563  0.172  0.151  0.114
    occupations:
  0.179 -0.000 -0.000 -0.000 -0.000
 -0.000  0.304 -0.000  0.054  0.039
 -0.000 -0.000  0.304  0.039 -0.054
 -0.000  0.054  0.039  0.233  0.000
 -0.000  0.039 -0.054  0.000  0.233
atomic mag. moment =   3.66242
N of occupied +U levels =   36.928377
 --- exit write_ns ---

     negative rho (up, down):  1.235E-01 1.235E-01
 --- in v_hubbard ---
Hubbard energy    0.0000

     Magnetic moment per site:
     atom:    1    charge:   12.8863    magn:   -3.6924    constr:    0.0000
     atom:    2    charge:   12.8982    magn:   -3.5333    constr:    0.0000
     atom:    3    charge:   12.9140    magn:   -3.5165    constr:    0.0000
     atom:    4    charge:   12.9156    magn:    3.5156    constr:    0.0000
     atom:    5    charge:   12.8848    magn:    3.6939    constr:    0.0000
     atom:    6    charge:   12.8975    magn:    3.5342    constr:    0.0000
     atom:    7    charge:   10.6105    magn:   -0.0149    constr:    0.0000
     atom:    8    charge:   10.6096    magn:   -0.0119    constr:    0.0000
     atom:    9    charge:   10.6096    magn:    0.0119    constr:    0.0000
     atom:   10    charge:   10.6109    magn:   -0.0036    constr:    0.0000
     atom:   11    charge:   10.6109    magn:    0.0036    constr:    0.0000
     atom:   12    charge:   10.6105    magn:    0.0149    constr:    0.0000
     atom:   13    charge:    5.2914    magn:   -0.2037    constr:    0.0000
     atom:   14    charge:    5.2914    magn:   -0.2037    constr:    0.0000
     atom:   15    charge:    5.2914    magn:   -0.2037    constr:    0.0000
     atom:   16    charge:    5.2913    magn:   -0.2174    constr:    0.0000
     atom:   17    charge:    5.2913    magn:   -0.2174    constr:    0.0000
     atom:   18    charge:    5.2913    magn:   -0.2174    constr:    0.0000
     atom:   19    charge:    5.2915    magn:    0.2173    constr:    0.0000
     atom:   20    charge:    5.2915    magn:    0.2173    constr:    0.0000
     atom:   21    charge:    5.2915    magn:    0.2173    constr:    0.0000
     atom:   22    charge:    5.2917    magn:    0.0621    constr:    0.0000
     atom:   23    charge:    5.2917    magn:    0.0621    constr:    0.0000
     atom:   24    charge:    5.2917    magn:    0.0621    constr:    0.0000
     atom:   25    charge:    5.2918    magn:   -0.0619    constr:    0.0000
     atom:   26    charge:    5.2918    magn:   -0.0619    constr:    0.0000
     atom:   27    charge:    5.2918    magn:   -0.0619    constr:    0.0000
     atom:   28    charge:    5.2916    magn:    0.2037    constr:    0.0000
     atom:   29    charge:    5.2916    magn:    0.2037    constr:    0.0000
     atom:   30    charge:    5.2916    magn:    0.2037    constr:    0.0000

     End of self-consistent calculation

 ------ SPIN UP ------------

          k = 0.0000 0.0000 0.0000 (  8497 PWs)   bands (ev):

   -78.4906 -78.1771 -78.0587 -73.4889 -73.4031 -73.3040 -44.5111 -44.4547
   -44.4546 -44.1708 -44.1707 -44.1656 -44.1564 -43.9993 -43.9993 -39.6404
   -39.5960 -39.5959 -39.5453 -39.5159 -39.5159 -39.4818 -39.4097 -39.4097
   -10.7217 -10.7217 -10.6975 -10.6975 -10.6840 -10.6696 -10.6544 -10.6544
   -10.6388 -10.6388 -10.6308 -10.6308 -10.6101 -10.6101 -10.5843 -10.5746
   -10.5633 -10.5633 -10.5541 -10.5541 -10.5381 -10.5381 -10.5324 -10.5252
   -10.5252 -10.5211 -10.5003 -10.5003 -10.4891 -10.4891  -7.3882  -6.9985
    -6.8644  -6.0491  -5.9682  -5.6004  -5.6002  -5.5001  -5.5001  -5.4340
    -5.4339  -5.4072  -5.3084  -5.3083  -5.1080  -5.1080  -4.9525  -4.9524
     1.5755   1.6924   1.7229   2.4136   2.5373   3.3151   5.4031   5.4031
     5.4811   5.9387   5.9388   6.0191   6.0638   6.0638   6.2407   6.2991
     6.2991   6.5114   6.5446   6.5446   6.5453   6.6986   6.6986   6.8620
     6.8621   6.9963   7.1244   7.2535   7.2536   7.6362   7.6363   7.6654
     7.8164   8.1723   8.1724   8.4020   8.5107   8.5107   8.6850   8.6850
     8.9115   9.0945   9.0946   9.1466   9.2547   9.2547   9.3250   9.4341
     9.4342   9.4435   9.5531   9.5532   9.7146   9.7147  10.0186  10.0186
    10.0642  10.0643  10.0855  10.1298  10.1299  10.4940  10.4941  10.6326
    10.8415  10.9774  11.0568  11.0568  11.1469  11.1743  11.2877  11.8925
    11.8926  12.6413  12.6414  12.9276  12.9276  13.1043  13.1881  13.1962
    13.1962  13.2275  13.3703  13.3703  14.2348  14.2348  14.9875  14.9875
    15.5078  15.6226  15.6226  15.7209  15.7814  15.9092  17.1302  17.1302
    17.1544  17.1544  17.2558  17.2558  17.5359  17.6004  17.6703  17.6704
    17.7278  17.7278  18.1430  18.1430  19.5773  20.5888  21.1298  21.2566
    21.5316  21.5316  22.0602  22.1982  22.5656  22.5656  22.6492  22.6493
    22.7689  22.7689  23.9860  23.9861  24.0534  24.0534  24.1612  24.3885

     occupation numbers
     1.0000   1.0000   1.0000   1.0000   1.0000   1.0000   1.0000   1.0000
     1.0000   1.0000   1.0000   1.0000   1.0000   1.0000   1.0000   1.0000
     1.0000   1.0000   1.0000   1.0000   1.0000   1.0000   1.0000   1.0000
     1.0000   1.0000   1.0000   1.0000   1.0000   1.0000   1.0000   1.0000
     1.0000   1.0000   1.0000   1.0000   1.0000   1.0000   1.0000   1.0000
     1.0000   1.0000   1.0000   1.0000   1.0000   1.0000   1.0000   1.0000
     1.0000   1.0000   1.0000   1.0000   1.0000   1.0000   1.0000   1.0000
     1.0000   1.0000   1.0000   1.0000   1.0000   1.0000   1.0000   1.0000
     1.0000   1.0000   1.0000   1.0000   1.0000   1.0000   1.0000   1.0000
     1.0000   1.0000   1.0000   1.0000   1.0000   1.0000   1.0000   1.0000
     1.0000   1.0000   1.0000   1.0000   1.0000   1.0000   1.0000   1.0000
     1.0000   1.0000   1.0000   1.0000   1.0000   1.0000   1.0000   1.0000
     1.0000   1.0000   1.0000   1.0000   1.0000   1.0000   1.0000   1.0000
     1.0000   1.0000   1.0000   1.0000   1.0000   1.0000   1.0000   1.0000
     1.0000   1.0000   1.0000   1.0000   1.0000   1.0000   1.0000   1.0000
     1.0000   1.0000   1.0000   1.0000   1.0000   1.0000   1.0000   1.0000
     1.0000   1.0000   1.0000   1.0000   1.0000   1.0000   1.0000   1.0000
     1.0000   1.0000   1.0000   1.0000   1.0000   1.0000   1.0000   1.0000
     1.0000   1.0294   1.0294  -0.0300  -0.0300  -0.0022  -0.0001  -0.0001
    -0.0001  -0.0000  -0.0000  -0.0000  -0.0000  -0.0000  -0.0000  -0.0000
    -0.0000  -0.0000  -0.0000  -0.0000  -0.0000  -0.0000  -0.0000  -0.0000
    -0.0000  -0.0000  -0.0000  -0.0000  -0.0000  -0.0000  -0.0000  -0.0000
    -0.0000  -0.0000  -0.0000  -0.0000  -0.0000  -0.0000  -0.0000  -0.0000
    -0.0000  -0.0000  -0.0000  -0.0000  -0.0000  -0.0000  -0.0000  -0.0000
    -0.0000  -0.0000  -0.0000  -0.0000  -0.0000  -0.0000  -0.0000  -0.0000

[...]

 ------ SPIN DOWN ----------

[...]

          k = 0.0000-0.5774 0.0000 (  8560 PWs)   bands (ev):

   -78.4918 -78.1812 -78.0528 -73.4872 -73.3991 -73.3106 -44.5116 -44.4563
   -44.4562 -44.1749 -44.1748 -44.1604 -44.1597 -43.9936 -43.9935 -39.6390
   -39.5944 -39.5944 -39.5413 -39.5121 -39.5120 -39.4883 -39.4162 -39.4162
   -10.7173 -10.6989 -10.6849 -10.6800 -10.6767 -10.6701 -10.6520 -10.6360
   -10.6316 -10.6275 -10.6193 -10.6179 -10.6116 -10.6089 -10.5839 -10.5727
   -10.5684 -10.5635 -10.5566 -10.5552 -10.5535 -10.5452 -10.5414 -10.5297
   -10.5287 -10.5179 -10.5167 -10.5060 -10.5039 -10.4919  -6.6781  -6.6466
    -6.4835  -6.2801  -6.2330  -5.8910  -5.8077  -5.7471  -5.6312  -5.5636
    -5.5012  -5.4800  -5.4043  -5.3372  -5.2145  -5.1572  -5.0526  -4.9774
     1.5110   1.7655   1.8087   2.0629   2.1380   2.3119   5.5772   5.8546
     5.8774   6.0180   6.2030   6.2514   6.3293   6.3711   6.3938   6.5698
     6.6103   6.6744   6.7970   6.8422   7.0843   7.1117   7.1847   7.3027
     7.3487   7.4776   7.5633   7.6019   7.7427   7.8479   7.8673   7.9807
     8.0346   8.1810   8.2212   8.3380   8.3563   8.3726   8.5006   8.5659
     8.7235   8.7980   8.8839   8.9976   9.0394   9.1197   9.1533   9.2379
     9.2663   9.3662   9.4370   9.5312   9.6401   9.7396   9.8209   9.8450
     9.8689   9.9563   9.9868  10.0960  10.1685  10.2627  10.3009  10.5144
    10.7014  10.7767  10.9906  11.0740  11.1750  11.3570  11.5407  11.8447
    11.8726  11.9449  12.5654  12.9023  13.0289  13.1045  13.1864  13.2263
    13.3102  13.3528  13.5163  13.6323  14.2480  14.2930  14.4993  14.7805
    14.8304  15.2026  15.3926  15.6868  15.7552  15.8712  15.9531  16.0110
    16.1149  16.1599  16.2492  16.9795  17.1344  17.2592  17.3283  17.3998
    17.4789  17.5398  17.6238  17.7001  21.3613  21.5682  21.8585  22.2644
    22.4385  22.5413  22.9130  22.9741  23.0511  23.1956  23.3132  23.3440
    23.4256  23.4612  23.9390  23.9664  24.1527  24.1820  24.3213  24.4353

     occupation numbers
     1.0000   1.0000   1.0000   1.0000   1.0000   1.0000   1.0000   1.0000
     1.0000   1.0000   1.0000   1.0000   1.0000   1.0000   1.0000   1.0000
     1.0000   1.0000   1.0000   1.0000   1.0000   1.0000   1.0000   1.0000
     1.0000   1.0000   1.0000   1.0000   1.0000   1.0000   1.0000   1.0000
     1.0000   1.0000   1.0000   1.0000   1.0000   1.0000   1.0000   1.0000
     1.0000   1.0000   1.0000   1.0000   1.0000   1.0000   1.0000   1.0000
     1.0000   1.0000   1.0000   1.0000   1.0000   1.0000   1.0000   1.0000
     1.0000   1.0000   1.0000   1.0000   1.0000   1.0000   1.0000   1.0000
     1.0000   1.0000   1.0000   1.0000   1.0000   1.0000   1.0000   1.0000
     1.0000   1.0000   1.0000   1.0000   1.0000   1.0000   1.0000   1.0000
     1.0000   1.0000   1.0000   1.0000   1.0000   1.0000   1.0000   1.0000
     1.0000   1.0000   1.0000   1.0000   1.0000   1.0000   1.0000   1.0000
     1.0000   1.0000   1.0000   1.0000   1.0000   1.0000   1.0000   1.0000
     1.0000   1.0000   1.0000   1.0000   1.0000   1.0000   1.0000   1.0000
     1.0000   1.0000   1.0000   1.0000   1.0000   1.0000   1.0000   1.0000
     1.0000   1.0000   1.0000   1.0000   1.0000   1.0000   1.0000   1.0000
     1.0000   1.0000   1.0000   1.0000   1.0000   1.0000   1.0000   1.0000
     1.0000   1.0000   1.0000   1.0000   1.0000   1.0000   1.0000   1.0000
     1.0000   1.0000   1.0228  -0.0058  -0.0144  -0.0022  -0.0001  -0.0000
    -0.0000  -0.0000  -0.0000  -0.0000  -0.0000  -0.0000  -0.0000  -0.0000
    -0.0000  -0.0000  -0.0000  -0.0000  -0.0000  -0.0000  -0.0000  -0.0000
    -0.0000  -0.0000  -0.0000  -0.0000  -0.0000  -0.0000  -0.0000  -0.0000
    -0.0000  -0.0000  -0.0000  -0.0000  -0.0000  -0.0000  -0.0000  -0.0000
    -0.0000  -0.0000  -0.0000  -0.0000  -0.0000  -0.0000  -0.0000  -0.0000
    -0.0000  -0.0000  -0.0000  -0.0000  -0.0000  -0.0000  -0.0000  -0.0000

     the Fermi energy is    12.7839 ev

!    total energy              =   -3195.03767893 Ry
     estimated scf accuracy    <       0.00000790 Ry
     smearing contrib. (-TS)   =       0.00286803 Ry
     internal energy E=F+TS    =   -3195.04054696 Ry

     The total energy is F=E-TS. E is the sum of the following terms:
     one-electron contribution =   -1267.28390554 Ry
     hartree contribution      =     826.37523472 Ry
     xc contribution           =    -695.65054798 Ry
     ewald contribution        =   -2058.48132819 Ry
     Hubbard energy            =       0.00000003 Ry

     total magnetization       =     0.00 Bohr mag/cell
     absolute magnetization    =    27.31 Bohr mag/cell

     convergence has been achieved in  20 iterations

     Writing output data file /home/aldair1809/Documentos/QE/4BFO/hubbard_pbe_mp/alpha0/bifeo3-Uhubbard.save/

     General routines

     Parallel routines

     Hubbard U routines

   This run was terminated on:  20:52:48  26Oct2024

   JOB DONE.