     Program PWSCF v.6.7MaX starts on 26Oct2024 at 18:43: 8

     R & G space division:  proc/nbgrp/npool/nimage =       4
     Waiting for input...
     Reading input from standard input

     Current dimensions of program PWSCF are:
     Max number of different atomic species (ntypx) = 10
     Max number of k-points (npk) =  40000
     Max angular momentum in pseudopotentials (lmaxx) =  3

     bravais-lattice index     =            4
     lattice parameter (alat)  =      10.4531  a.u.
     unit-cell volume          =    2440.6662 (a.u.)^3
     number of atoms/cell      =           30
     number of atomic types    =            4
     number of electrons       =       294.00
     number of Kohn-Sham states=          200
     kinetic-energy cutoff     =      30.0000  Ry
     charge density cutoff     =     120.0000  Ry
     scf convergence threshold =      1.0E-07
     mixing beta               =       0.4000
     number of iterations used =            8  plain     mixing
     Exchange-correlation=  SLA  PW   PBX  PBC
                           (   1   4   3   4   0   0   0)

     celldm(1)=  10.453102  celldm(2)=   0.000000  celldm(3)=   2.467415
     celldm(4)=   0.000000  celldm(5)=   0.000000  celldm(6)=   0.000000

     crystal axes: (cart. coord. in units of alat)
               a(1) = (   1.000000   0.000000   0.000000 )
               a(2) = (  -0.500000   0.866025   0.000000 )
               a(3) = (   0.000000   0.000000   2.467415 )

     reciprocal axes: (cart. coord. in units 2 pi/alat)
               b(1) = (  1.000000  0.577350 -0.000000 )
               b(2) = (  0.000000  1.154701  0.000000 )
               b(3) = (  0.000000 -0.000000  0.405282 )

     PseudoPot. # 1 for O  read from file:
     /home/aldair1809/Programas/QE/q-e-qe-7.3/pseudo/o_pbe_v1.2.uspp.F.UPF
     MD5 check sum: 734c27235a0248c51dbae37a1fbe46ec
     Pseudo is Ultrasoft + core correction, Zval =  6.0
     Generated by new atomic code, or converted to UPF format
     Using radial grid of  737 points,  5 beta functions with:
                l(1) =   0
                l(2) =   0
                l(3) =   1
                l(4) =   1
                l(5) =   2
     Q(r) pseudized with  8 coefficients,  rinner =    0.900   0.900   0.900
                                                       0.900   0.900

     PseudoPot. # 2 for Bi read from file:
     /home/aldair1809/Programas/QE/q-e-qe-7.3/pseudo/bi_pbe_v1.uspp.F.UPF
     MD5 check sum: cceb9f28ec65b6d7ff33140f5b0b1758
     Pseudo is Ultrasoft + core correction, Zval = 15.0
     Generated by new atomic code, or converted to UPF format
     Using radial grid of  899 points,  6 beta functions with:
                l(1) =   0
                l(2) =   0
                l(3) =   1
                l(4) =   1
                l(5) =   2
                l(6) =   2
     Q(r) pseudized with  6 coefficients,  rinner =    1.000   1.000   1.000
                                                       1.000   1.000

     PseudoPot. # 3 for Fe read from file:
     /home/aldair1809/Programas/QE/q-e-qe-7.3/pseudo/fe_pbe_v1.5.uspp.F.UPF
     MD5 check sum: a130daea23fe5165f5d574ae7f82ed95
     Pseudo is Ultrasoft + core correction, Zval = 16.0
     Generated by new atomic code, or converted to UPF format
     Using radial grid of  861 points,  6 beta functions with:
                l(1) =   0
                l(2) =   0
                l(3) =   1
                l(4) =   1
                l(5) =   2
                l(6) =   2
     Q(r) pseudized with  8 coefficients,  rinner =    1.000   1.000   1.000
                                                       1.000   1.000

     PseudoPot. # 4 for Fe read from file:
     /home/aldair1809/Programas/QE/q-e-qe-7.3/pseudo/fe_pbe_v1.5.uspp.F.UPF
     MD5 check sum: a130daea23fe5165f5d574ae7f82ed95
     Pseudo is Ultrasoft + core correction, Zval = 16.0
     Generated by new atomic code, or converted to UPF format
     Using radial grid of  861 points,  6 beta functions with:
                l(1) =   0
                l(2) =   0
                l(3) =   1
                l(4) =   1
                l(5) =   2
                l(6) =   2
     Q(r) pseudized with  8 coefficients,  rinner =    1.000   1.000   1.000
                                                       1.000   1.000

     atomic species   valence    mass     pseudopotential
        O              6.00    15.99940     O ( 1.00)
        Bi            15.00   208.98040     Bi( 1.00)
        Fe1           16.00    55.84500     Fe( 1.00)
        Fe2           16.00    55.84500     Fe( 1.00)

     Starting magnetic structure
     atomic species   magnetization
        O            0.000
        Bi           0.000
        Fe1         -0.800
        Fe2          0.800

     Simplified LDA+U calculation (l_max = 2) with parameters (eV):
     atomic species    L          U    alpha       J0     beta
        Fe1            2     0.5000   0.2000   0.0000   0.0000
        Fe2            2     0.5000   0.2000   0.0000   0.0000

      3 Sym. Ops. (no inversion) found

                                    s                        frac. trans.

      isym =  1     identity

 cryst.   s( 1) = (     1          0          0      )
                  (     0          1          0      )
                  (     0          0          1      )

 cart.    s( 1) = (  1.0000000  0.0000000  0.0000000 )
                  (  0.0000000  1.0000000  0.0000000 )
                  (  0.0000000  0.0000000  1.0000000 )

      isym =  2     120 deg rotation - cryst. axis [0,0,1]

[...]

      isym =  3     120 deg rotation - cryst. axis [0,0,-1]

 cryst.   s( 3) = (    -1         -1          0      )
                  (     1          0          0      )
                  (     0          0          1      )

 cart.    s( 3) = ( -0.5000000  0.8660254  0.0000000 )
                  ( -0.8660254 -0.5000000  0.0000000 )
                  (  0.0000000  0.0000000  1.0000000 )

     point group C_3 (3)
     there are  3 classes
     the character table:

       E     C3    C3^2
A      1.00  1.00  1.00
E      1.00 -0.50 -0.50
E*     1.00 -0.50 -0.50
     imaginary part
A      0.00  0.00  0.00
E      0.00  0.87 -0.87
E*     0.00 -0.87  0.87

     the symmetry operations in each class and the name of the first element:

     E        1
          identity
     C3       2
          120 deg rotation - cryst. axis [0,0,1]
     C3^2     3
          120 deg rotation - cryst. axis [0,0,-1]

   Cartesian axes

     site n.     atom                  positions (alat units)
         1           Fe1 tau(   1) = (   0.0000000   0.0000000   1.9173194  )
         2           Fe1 tau(   2) = (  -0.0000005   0.5773506   2.3408318  )
         3           Fe1 tau(   3) = (   0.5000005   0.2886748   1.4987656  )
         4           Fe2 tau(   4) = (   0.5000005   0.2886748   0.2650306  )
         5           Fe2 tau(   5) = (   0.0000000   0.0000000   0.6836385  )
         6           Fe2 tau(   6) = (  -0.0000005   0.5773506   1.1071829  )
         7           Bi  tau(   7) = (   0.5000005   0.2886748   2.0704508  )
         8           Bi  tau(   8) = (  -0.0000005   0.5773506   1.6683657  )
         9           Bi  tau(   9) = (  -0.0000005   0.5773506   0.4345959  )
        10           Bi  tau(  10) = (   0.0000000   0.0000000   0.0112133  )
        11           Bi  tau(  11) = (   0.0000000   0.0000000   1.2449306  )
        12           Bi  tau(  12) = (   0.5000005   0.2886748   0.8366940  )
        13           O   tau(  13) = (  -0.3015234   0.6617768   2.1713309  )
        14           O   tau(  14) = (   0.0776467   0.2740092   2.1713309  )
        15           O   tau(  15) = (   0.2238783   0.7962639   2.1713309  )
        16           O   tau(  16) = (   0.4195843   0.5622547   1.7587968  )
        17           O   tau(  17) = (   0.3032805   0.0822442   1.7587968  )
        18           O   tau(  18) = (   0.7771337   0.2215274   1.7587968  )
        19           O   tau(  19) = (   0.6967279   0.0822438   0.5250654  )
        20           O   tau(  20) = (   0.5804103   0.5622631   0.5250654  )
        21           O   tau(  21) = (   0.2228602   0.2215194   0.5250654  )
        22           O   tau(  22) = (  -0.0757596   0.8510068   0.1130324  )
        23           O   tau(  23) = (  -0.1991137   0.3749123   0.1130324  )
        24           O   tau(  24) = (   0.2748733   0.5061317   0.1130324  )
        25           O   tau(  25) = (   0.1991050   0.3749017   1.3467955  )
        26           O   tau(  26) = (   0.0757731   0.8510045   1.3467955  )
        27           O   tau(  27) = (  -0.2748781   0.5061446   1.3467955  )
        28           O   tau(  28) = (  -0.0776631   0.2740052   0.9376559  )
        29           O   tau(  29) = (   0.3015366   0.6617637   0.9376559  )
        30           O   tau(  30) = (  -0.2238720   0.7962811   0.9376559  )

   Crystallographic axes

     site n.     atom                  positions (cryst. coord.)
         1           Fe1 tau(   1) = (  0.0000000  0.0000000  0.7770559  )
         2           Fe1 tau(   2) = (  0.3333330  0.6666670  0.9486980  )
         3           Fe1 tau(   3) = (  0.6666670  0.3333330  0.6074234  )
         4           Fe2 tau(   4) = (  0.6666670  0.3333330  0.1074122  )
         5           Fe2 tau(   5) = (  0.0000000  0.0000000  0.2770667  )
         6           Fe2 tau(   6) = (  0.3333330  0.6666670  0.4487218  )
         7           Bi  tau(   7) = (  0.6666670  0.3333330  0.8391174  )
         8           Bi  tau(   8) = (  0.3333330  0.6666670  0.6761593  )
         9           Bi  tau(   9) = (  0.3333330  0.6666670  0.1761341  )
        10           Bi  tau(  10) = (  0.0000000  0.0000000  0.0045446  )
        11           Bi  tau(  11) = (  0.0000000  0.0000000  0.5045485  )
        12           Bi  tau(  12) = (  0.6666670  0.3333330  0.3390974  )
        13           O   tau(  13) = (  0.0805536  0.7641541  0.8800023  )
        14           O   tau(  14) = (  0.2358459  0.3163985  0.8800023  )
        15           O   tau(  15) = (  0.6836015  0.9194464  0.8800023  )
        16           O   tau(  16) = (  0.7442022  0.6492358  0.7128095  )
        17           O   tau(  17) = (  0.3507642  0.0949674  0.7128095  )
        18           O   tau(  18) = (  0.9050326  0.2557978  0.7128095  )
        19           O   tau(  19) = (  0.7442114  0.0949669  0.2127998  )
        20           O   tau(  20) = (  0.9050331  0.6492455  0.2127998  )
        21           O   tau(  21) = (  0.3507545  0.2557886  0.2127998  )
        22           O   tau(  22) = (  0.4155694  0.9826580  0.0458101  )
        23           O   tau(  23) = (  0.0173420  0.4329115  0.0458101  )
        24           O   tau(  24) = (  0.5670885  0.5844306  0.0458101  )
        25           O   tau(  25) = (  0.4155546  0.4328992  0.5458326  )
        26           O   tau(  26) = (  0.5671008  0.9826554  0.5458326  )
        27           O   tau(  27) = (  0.0173446  0.5844454  0.5458326  )
        28           O   tau(  28) = (  0.0805338  0.3163939  0.3800155  )
        29           O   tau(  29) = (  0.6836061  0.7641389  0.3800155  )
[...]
  0.028  0.388  0.000  0.056  0.527
  0.388  0.028  0.000  0.527  0.056
  0.214  0.369  0.000  0.132  0.284
  0.369  0.214  0.000  0.284  0.132
    occupations:
  0.981 -0.000 -0.000 -0.000 -0.000
 -0.000  0.981 -0.000 -0.001 -0.001
 -0.000 -0.000  0.981 -0.001  0.001
 -0.000 -0.001 -0.001  0.980  0.000
 -0.000 -0.001  0.001  0.000  0.980
atomic mag. moment =  -3.80840
atom    2   Tr[ns(na)] (up, down, total) =   1.16989  4.87072  6.04061
   spin  1
    eigenvalues:
  0.161  0.170  0.170  0.334  0.334
    eigenvectors:
  1.000  0.000  0.000  0.000  0.000
  0.000  0.235  0.057  0.300  0.408
  0.000  0.057  0.235  0.408  0.300
  0.000  0.092  0.616  0.000  0.291
  0.000  0.616  0.092  0.291  0.000
    occupations:
  0.161 -0.000 -0.000 -0.000 -0.000
 -0.000  0.286 -0.000 -0.055  0.051
 -0.000 -0.000  0.286  0.051  0.055
 -0.000 -0.055  0.051  0.218  0.000
 -0.000  0.051  0.055  0.000  0.218
   spin  2
    eigenvalues:
  0.965  0.965  0.980  0.981  0.981
    eigenvectors:
  0.000  0.000  1.000  0.000  0.000
  0.409  0.268  0.000  0.272  0.051
  0.268  0.409  0.000  0.051  0.272
  0.000  0.324  0.000  0.051  0.625
  0.324  0.000  0.000  0.625  0.051
    occupations:
  0.980 -0.000 -0.000 -0.000 -0.000
 -0.000  0.970 -0.000  0.005 -0.006
 -0.000 -0.000  0.970 -0.006 -0.005
 -0.000  0.005 -0.006  0.976  0.000
 -0.000 -0.006 -0.005  0.000  0.976
atomic mag. moment =  -3.70084
atom    3   Tr[ns(na)] (up, down, total) =   1.18608  4.87485  6.06094
   spin  1
    eigenvalues:
  0.176  0.176  0.187  0.323  0.323
    eigenvectors:
  0.000  0.000  1.000  0.000  0.000
  0.383  0.173  0.000  0.353  0.091
  0.173  0.383  0.000  0.091  0.353
  0.029  0.416  0.000  0.076  0.480
  0.416  0.029  0.000  0.480  0.076
    occupations:
  0.187 -0.000 -0.000 -0.000 -0.000
 -0.000  0.242 -0.000 -0.055  0.048
 -0.000 -0.000  0.242  0.048  0.055
 -0.000 -0.055  0.048  0.258  0.000
 -0.000  0.048  0.055  0.000  0.258
   spin  2
    eigenvalues:
  0.968  0.968  0.979  0.980  0.980
    eigenvectors:
  0.000  0.000  1.000  0.000  0.000
  0.424  0.106  0.000  0.330  0.140
  0.106  0.424  0.000  0.140  0.330
  0.045  0.424  0.000  0.022  0.509
  0.424  0.045  0.000  0.509  0.022
    occupations:
  0.979 -0.000 -0.000 -0.000 -0.000
 -0.000  0.974 -0.000  0.004 -0.004
 -0.000 -0.000  0.974 -0.004 -0.004
 -0.000  0.004 -0.004  0.974  0.000
 -0.000 -0.004 -0.004  0.000  0.974
atomic mag. moment =  -3.68877
atom    4   Tr[ns(na)] (up, down, total) =   4.87488  1.18609  6.06097
   spin  1
    eigenvalues:
  0.968  0.968  0.979  0.980  0.980
    eigenvectors:
  0.000  0.000  1.000  0.000  0.000
  0.007  0.524  0.000  0.036  0.433
  0.524  0.007  0.000  0.433  0.036
  0.185  0.285  0.000  0.126  0.404
  0.285  0.185  0.000  0.404  0.126
    occupations:
  0.979 -0.000 -0.000 -0.000 -0.000
 -0.000  0.974 -0.000 -0.004 -0.004
 -0.000 -0.000  0.974 -0.004  0.004
 -0.000 -0.004 -0.004  0.974  0.000
 -0.000 -0.004  0.004  0.000  0.974
   spin  2
    eigenvalues:
  0.176  0.176  0.187  0.323  0.323
    eigenvectors:
  0.000  0.000  1.000  0.000  0.000
  0.001  0.554  0.000  0.005  0.440
  0.554  0.001  0.000  0.440  0.005
  0.171  0.273  0.000  0.187  0.368
  0.273  0.171  0.000  0.368  0.187
    occupations:
  0.187 -0.000 -0.000 -0.000 -0.000
 -0.000  0.242 -0.000  0.055  0.048
 -0.000 -0.000  0.242  0.048 -0.055
 -0.000  0.055  0.048  0.258  0.000
 -0.000  0.048 -0.055  0.000  0.258
atomic mag. moment =   3.68880
atom    5   Tr[ns(na)] (up, down, total) =   4.90254  1.09413  5.99668
   spin  1
    eigenvalues:
  0.979  0.979  0.981  0.982  0.982
    eigenvectors:
  0.000  0.000  1.000  0.000  0.000
  0.398  0.018  0.000  0.414  0.169
  0.018  0.398  0.000  0.169  0.414
  0.108  0.476  0.000  0.003  0.413
  0.476  0.108  0.000  0.413  0.003
    occupations:
  0.981 -0.000 -0.000 -0.000 -0.000
 -0.000  0.981 -0.000  0.001 -0.001
 -0.000 -0.000  0.981 -0.001 -0.001
 -0.000  0.001 -0.001  0.980  0.000
 -0.000 -0.001 -0.001  0.000  0.980
   spin  2
    eigenvalues:
  0.154  0.163  0.163  0.308  0.308
    eigenvectors:
  1.000  0.000  0.000  0.000  0.000
  0.000  0.364  0.026  0.571  0.039
  0.000  0.026  0.364  0.039  0.571
  0.000  0.058  0.552  0.038  0.352
  0.000  0.552  0.058  0.352  0.038
    occupations:
  0.154 -0.000 -0.000 -0.000 -0.000
 -0.000  0.251 -0.000 -0.038  0.059
 -0.000 -0.000  0.251  0.059  0.038
 -0.000 -0.038  0.059  0.219  0.000
 -0.000  0.059  0.038  0.000  0.219
atomic mag. moment =   3.80841
atom    6   Tr[ns(na)] (up, down, total) =   4.87074  1.16990  6.04064
   spin  1
    eigenvalues:
  0.965  0.965  0.980  0.981  0.981
    eigenvectors:
  0.000  0.000  1.000  0.000  0.000
  0.004  0.672  0.000  0.057  0.266
  0.672  0.004  0.000  0.266  0.057
  0.167  0.156  0.000  0.127  0.549
  0.156  0.167  0.000  0.549  0.127
    occupations:
  0.980 -0.000 -0.000 -0.000 -0.000
 -0.000  0.970 -0.000 -0.005 -0.006
 -0.000 -0.000  0.970 -0.006  0.005
 -0.000 -0.005 -0.006  0.976  0.000
 -0.000 -0.006  0.005  0.000  0.976
   spin  2
    eigenvalues:
  0.161  0.170  0.170  0.334  0.334
    eigenvectors:
  1.000  0.000  0.000  0.000  0.000
  0.000  0.015  0.277  0.000  0.708
  0.000  0.277  0.015  0.708  0.000
  0.000  0.173  0.535  0.138  0.153
  0.000  0.535  0.173  0.153  0.138
    occupations:
  0.161 -0.000 -0.000 -0.000 -0.000
 -0.000  0.286 -0.000  0.055  0.051
 -0.000 -0.000  0.286  0.051 -0.055
 -0.000  0.055  0.051  0.218  0.000
 -0.000  0.051 -0.055  0.000  0.218
atomic mag. moment =   3.70084
N of occupied +U levels =   36.196515
 --- exit write_ns ---

     negative rho (up, down):  1.216E-01 1.216E-01
 --- in v_hubbard ---
Hubbard energy    0.6392

     Magnetic moment per site:
     atom:    1    charge:   12.8764    magn:   -3.7407    constr:    0.0000
     atom:    2    charge:   12.8859    magn:   -3.6277    constr:    0.0000
     atom:    3    charge:   12.9014    magn:   -3.6099    constr:    0.0000
     atom:    4    charge:   12.9015    magn:    3.6099    constr:    0.0000
     atom:    5    charge:   12.8764    magn:    3.7407    constr:    0.0000
     atom:    6    charge:   12.8860    magn:    3.6277    constr:    0.0000
     atom:    7    charge:   10.6101    magn:   -0.0136    constr:    0.0000
     atom:    8    charge:   10.6119    magn:   -0.0112    constr:    0.0000
     atom:    9    charge:   10.6119    magn:    0.0112    constr:    0.0000
     atom:   10    charge:   10.6100    magn:   -0.0034    constr:    0.0000
     atom:   11    charge:   10.6100    magn:    0.0034    constr:    0.0000
     atom:   12    charge:   10.6101    magn:    0.0136    constr:    0.0000
     atom:   13    charge:    5.2972    magn:   -0.1971    constr:    0.0000
     atom:   14    charge:    5.2972    magn:   -0.1971    constr:    0.0000
     atom:   15    charge:    5.2972    magn:   -0.1971    constr:    0.0000
     atom:   16    charge:    5.2967    magn:   -0.2084    constr:    0.0000
     atom:   17    charge:    5.2967    magn:   -0.2084    constr:    0.0000
     atom:   18    charge:    5.2967    magn:   -0.2084    constr:    0.0000
     atom:   19    charge:    5.2966    magn:    0.2083    constr:    0.0000
     atom:   20    charge:    5.2966    magn:    0.2083    constr:    0.0000
     atom:   21    charge:    5.2966    magn:    0.2083    constr:    0.0000
     atom:   22    charge:    5.2978    magn:    0.0588    constr:    0.0000
     atom:   23    charge:    5.2978    magn:    0.0588    constr:    0.0000
     atom:   24    charge:    5.2978    magn:    0.0588    constr:    0.0000
     atom:   25    charge:    5.2977    magn:   -0.0588    constr:    0.0000
     atom:   26    charge:    5.2977    magn:   -0.0588    constr:    0.0000
     atom:   27    charge:    5.2977    magn:   -0.0588    constr:    0.0000
     atom:   28    charge:    5.2972    magn:    0.1972    constr:    0.0000
     atom:   29    charge:    5.2972    magn:    0.1972    constr:    0.0000
     atom:   30    charge:    5.2972    magn:    0.1972    constr:    0.0000

     End of self-consistent calculation

 ------ SPIN UP ------------

          k = 0.0000 0.0000 0.0000 (  6723 PWs)   bands (ev):

   -78.8208 -78.6016 -78.4897 -73.7516 -73.6912 -73.6071 -44.8180 -44.7566
   -44.7565 -44.5639 -44.5639 -44.5582 -44.5535 -44.4081 -44.4081 -39.8803
   -39.8348 -39.8348 -39.8112 -39.7792 -39.7792 -39.7559 -39.6903 -39.6903
   -10.6806 -10.6806 -10.6564 -10.6564 -10.6417 -10.6292 -10.6140 -10.6140
   -10.5977 -10.5977 -10.5909 -10.5909 -10.5712 -10.5712 -10.5460 -10.5365
   -10.5256 -10.5256 -10.5161 -10.5161 -10.4977 -10.4977 -10.4922 -10.4857
   -10.4857 -10.4824 -10.4605 -10.4605 -10.4499 -10.4499  -7.3721  -6.9838
    -6.8517  -6.0318  -5.9553  -5.5794  -5.5793  -5.4838  -5.4838  -5.4139
    -5.4139  -5.3947  -5.2936  -5.2935  -5.0917  -5.0917  -4.9373  -4.9372
     1.6111   1.7258   1.7556   2.4443   2.5667   3.3440   5.3795   5.3795
     5.4755   5.8894   5.8895   5.9986   6.0098   6.0099   6.2195   6.2311
     6.2311   6.4825   6.4828   6.4828   6.5296   6.6402   6.6403   6.8409
     6.8410   6.9618   7.1064   7.2266   7.2266   7.5096   7.5096   7.6344
     7.8063   8.1436   8.1437   8.2476   8.4532   8.4532   8.5730   8.5730
     8.7901   8.9710   9.0486   9.0486   9.1664   9.1665   9.3296   9.3520
     9.3520   9.4273   9.4912   9.4913   9.6730   9.6730  10.0296  10.0296
    10.0790  10.0791  10.1017  10.1444  10.1444  10.5158  10.5158  10.6803
    10.8702  10.9394  10.9394  11.0225  11.1803  11.1974  11.3009  11.7536
    11.7536  12.5321  12.5322  13.0666  13.0666  13.2421  13.3001  13.3285
    13.3285  13.3519  13.4926  13.4926  14.2537  14.2537  14.9841  14.9841
    15.5355  15.6349  15.6349  15.7516  15.8116  15.9406  17.1656  17.1657
    17.1919  17.1920  17.2878  17.2878  17.5708  17.6408  17.7083  17.7083
    17.7640  17.7640  18.1817  18.1818  19.5347  20.5837  21.0833  21.2267
    21.5373  21.5373  22.0485  22.1878  22.5771  22.5771  22.6557  22.6557
    22.7805  22.7806  24.0019  24.0020  24.0686  24.0686  24.1487  24.3801

     occupation numbers
     1.0000   1.0000   1.0000   1.0000   1.0000   1.0000   1.0000   1.0000
     1.0000   1.0000   1.0000   1.0000   1.0000   1.0000   1.0000   1.0000
     1.0000   1.0000   1.0000   1.0000   1.0000   1.0000   1.0000   1.0000
     1.0000   1.0000   1.0000   1.0000   1.0000   1.0000   1.0000   1.0000
     1.0000   1.0000   1.0000   1.0000   1.0000   1.0000   1.0000   1.0000
     1.0000   1.0000   1.0000   1.0000   1.0000   1.0000   1.0000   1.0000
     1.0000   1.0000   1.0000   1.0000   1.0000   1.0000   1.0000   1.0000
     1.0000   1.0000   1.0000   1.0000   1.0000   1.0000   1.0000   1.0000
     1.0000   1.0000   1.0000   1.0000   1.0000   1.0000   1.0000   1.0000
     1.0000   1.0000   1.0000   1.0000   1.0000   1.0000   1.0000   1.0000
     1.0000   1.0000   1.0000   1.0000   1.0000   1.0000   1.0000   1.0000
     1.0000   1.0000   1.0000   1.0000   1.0000   1.0000   1.0000   1.0000
     1.0000   1.0000   1.0000   1.0000   1.0000   1.0000   1.0000   1.0000
     1.0000   1.0000   1.0000   1.0000   1.0000   1.0000   1.0000   1.0000
     1.0000   1.0000   1.0000   1.0000   1.0000   1.0000   1.0000   1.0000
     1.0000   1.0000   1.0000   1.0000   1.0000   1.0000   1.0000   1.0000
     1.0000   1.0000   1.0000   1.0000   1.0000   1.0000   1.0000   1.0000
     1.0000   1.0000   1.0000   1.0000   1.0000   1.0000   1.0000   1.0000
     1.0000   0.9470   0.9468  -0.0000  -0.0000  -0.0000  -0.0000  -0.0000
    -0.0000  -0.0000  -0.0000  -0.0000  -0.0000  -0.0000  -0.0000  -0.0000
    -0.0000  -0.0000  -0.0000  -0.0000  -0.0000  -0.0000  -0.0000  -0.0000
    -0.0000  -0.0000  -0.0000  -0.0000  -0.0000  -0.0000  -0.0000  -0.0000
    -0.0000  -0.0000  -0.0000  -0.0000  -0.0000  -0.0000  -0.0000  -0.0000
    -0.0000  -0.0000  -0.0000  -0.0000  -0.0000  -0.0000  -0.0000  -0.0000
    -0.0000  -0.0000  -0.0000  -0.0000  -0.0000  -0.0000  -0.0000  -0.0000

[...]

 ------ SPIN DOWN ----------

[...]

          k = 0.0000-0.5774 0.0000 (  6794 PWs)   bands (ev):

   -78.8214 -78.6024 -78.4892 -73.7520 -73.6911 -73.6081 -44.8197 -44.7593
   -44.7584 -44.5670 -44.5661 -44.5599 -44.5538 -44.4099 -44.4090 -39.8814
   -39.8372 -39.8363 -39.8119 -39.7811 -39.7803 -39.7577 -39.6933 -39.6925
   -10.6767 -10.6571 -10.6431 -10.6393 -10.6339 -10.6282 -10.6127 -10.5949
   -10.5906 -10.5857 -10.5793 -10.5765 -10.5739 -10.5700 -10.5444 -10.5348
   -10.5302 -10.5257 -10.5186 -10.5172 -10.5150 -10.5061 -10.5017 -10.4897
   -10.4886 -10.4787 -10.4769 -10.4668 -10.4640 -10.4524  -6.6606  -6.6312
    -6.4679  -6.2649  -6.2202  -5.8736  -5.7926  -5.7289  -5.6143  -5.5447
    -5.4854  -5.4637  -5.3917  -5.3245  -5.1992  -5.1390  -5.0372  -4.9573
     1.5420   1.7989   1.8392   2.0941   2.1682   2.3417   5.5168   5.7689
     5.7974   5.9048   6.1554   6.1754   6.3108   6.3479   6.3659   6.5340
     6.5628   6.6334   6.7193   6.7780   7.0217   7.0590   7.1123   7.2099
     7.3374   7.4197   7.5340   7.5475   7.6546   7.7715   7.8155   7.9300
     7.9999   8.0638   8.1872   8.3026   8.3310   8.3697   8.4941   8.5597
     8.6370   8.7407   8.8551   8.9033   9.0018   9.0493   9.1208   9.1899
     9.2676   9.3270   9.4054   9.4833   9.6409   9.7538   9.8041   9.8464
     9.8820   9.9420   9.9749  10.0886  10.1455  10.1997  10.2714  10.5162
    10.6160  10.7902  10.9985  11.0673  11.1029  11.2941  11.4955  11.7127
    11.7695  11.8256  12.4556  13.0441  13.1561  13.2437  13.3134  13.3428
    13.4297  13.4622  13.6254  13.7260  14.2766  14.3097  14.5312  14.7868
    14.8355  15.2193  15.4070  15.7098  15.7801  15.8997  15.9821  16.0406
    16.1434  16.1902  16.2746  17.0118  17.1681  17.2923  17.3606  17.4335
    17.5175  17.5759  17.6572  17.7314  21.3217  21.5247  21.8324  22.2519
    22.4321  22.5274  22.9039  22.9765  23.0456  23.2209  23.3272  23.3613
    23.4338  23.4685  23.9420  23.9702  24.1677  24.1975  24.3320  24.4616

     occupation numbers
     1.0000   1.0000   1.0000   1.0000   1.0000   1.0000   1.0000   1.0000
     1.0000   1.0000   1.0000   1.0000   1.0000   1.0000   1.0000   1.0000
     1.0000   1.0000   1.0000   1.0000   1.0000   1.0000   1.0000   1.0000
     1.0000   1.0000   1.0000   1.0000   1.0000   1.0000   1.0000   1.0000
     1.0000   1.0000   1.0000   1.0000   1.0000   1.0000   1.0000   1.0000
     1.0000   1.0000   1.0000   1.0000   1.0000   1.0000   1.0000   1.0000
     1.0000   1.0000   1.0000   1.0000   1.0000   1.0000   1.0000   1.0000
     1.0000   1.0000   1.0000   1.0000   1.0000   1.0000   1.0000   1.0000
     1.0000   1.0000   1.0000   1.0000   1.0000   1.0000   1.0000   1.0000
     1.0000   1.0000   1.0000   1.0000   1.0000   1.0000   1.0000   1.0000
     1.0000   1.0000   1.0000   1.0000   1.0000   1.0000   1.0000   1.0000
     1.0000   1.0000   1.0000   1.0000   1.0000   1.0000   1.0000   1.0000
     1.0000   1.0000   1.0000   1.0000   1.0000   1.0000   1.0000   1.0000
     1.0000   1.0000   1.0000   1.0000   1.0000   1.0000   1.0000   1.0000
     1.0000   1.0000   1.0000   1.0000   1.0000   1.0000   1.0000   1.0000
     1.0000   1.0000   1.0000   1.0000   1.0000   1.0000   1.0000   1.0000
     1.0000   1.0000   1.0000   1.0000   1.0000   1.0000   1.0000   1.0000
     1.0000   1.0000   1.0000   1.0000   1.0000   1.0000   1.0000   1.0000
     1.0000   1.0000   1.0355  -0.0001  -0.0000  -0.0000  -0.0000  -0.0000
    -0.0000  -0.0000  -0.0000  -0.0000  -0.0000  -0.0000  -0.0000  -0.0000
    -0.0000  -0.0000  -0.0000  -0.0000  -0.0000  -0.0000  -0.0000  -0.0000
    -0.0000  -0.0000  -0.0000  -0.0000  -0.0000  -0.0000  -0.0000  -0.0000
    -0.0000  -0.0000  -0.0000  -0.0000  -0.0000  -0.0000  -0.0000  -0.0000
    -0.0000  -0.0000  -0.0000  -0.0000  -0.0000  -0.0000  -0.0000  -0.0000
    -0.0000  -0.0000  -0.0000  -0.0000  -0.0000  -0.0000  -0.0000  -0.0000

     the Fermi energy is    12.6225 ev

!    total energy              =   -3194.15467245 Ry
     estimated scf accuracy    <       0.00000009 Ry
     smearing contrib. (-TS)   =       0.00084176 Ry
     internal energy E=F+TS    =   -3194.15551421 Ry

     The total energy is F=E-TS. E is the sum of the following terms:
     one-electron contribution =   -1265.38850215 Ry
     hartree contribution      =     824.66240663 Ry
     xc contribution           =    -695.58725197 Ry
     ewald contribution        =   -2058.48132916 Ry
     Hubbard energy            =       0.63916244 Ry

     total magnetization       =    -0.00 Bohr mag/cell
     absolute magnetization    =    27.65 Bohr mag/cell

     convergence has been achieved in  12 iterations

     Writing output data file /home/aldair1809/Documentos/QE/4BFO/hubbard_pbe_mp/lr_0.2/bifeo3-Uhubbard.save/

     General routines

     Parallel routines

     Hubbard U routines

   This run was terminated on:  19:18:25  26Oct2024

   JOB DONE.