     Program PWSCF v.6.7MaX starts on 26Oct2024 at 23:29:49

     R & G space division:  proc/nbgrp/npool/nimage =       4
     Waiting for input...
     Reading input from standard input

     Current dimensions of program PWSCF are:
     Max number of different atomic species (ntypx) = 10
     Max number of k-points (npk) =  40000
     Max angular momentum in pseudopotentials (lmaxx) =  3

     bravais-lattice index     =            4
     lattice parameter (alat)  =      10.4531  a.u.
     unit-cell volume          =    2440.6662 (a.u.)^3
     number of atoms/cell      =           30
     number of atomic types    =            4
     number of electrons       =       294.00
     number of Kohn-Sham states=          200
     kinetic-energy cutoff     =      35.0000  Ry
     charge density cutoff     =     140.0000  Ry
     scf convergence threshold =      1.0E-07
     mixing beta               =       0.4000
     number of iterations used =            8  plain     mixing
     Exchange-correlation=  SLA  PW   PBX  PBC
                           (   1   4   3   4   0   0   0)

     celldm(1)=  10.453102  celldm(2)=   0.000000  celldm(3)=   2.467415
     celldm(4)=   0.000000  celldm(5)=   0.000000  celldm(6)=   0.000000

     crystal axes: (cart. coord. in units of alat)
               a(1) = (   1.000000   0.000000   0.000000 )
               a(2) = (  -0.500000   0.866025   0.000000 )
               a(3) = (   0.000000   0.000000   2.467415 )

     reciprocal axes: (cart. coord. in units 2 pi/alat)
               b(1) = (  1.000000  0.577350 -0.000000 )
               b(2) = (  0.000000  1.154701  0.000000 )
               b(3) = (  0.000000 -0.000000  0.405282 )

     PseudoPot. # 1 for O  read from file:
     /home/aldair1809/Programas/QE/q-e-qe-7.3/pseudo/o_pbe_v1.2.uspp.F.UPF
     MD5 check sum: 734c27235a0248c51dbae37a1fbe46ec
     Pseudo is Ultrasoft + core correction, Zval =  6.0
     Generated by new atomic code, or converted to UPF format
     Using radial grid of  737 points,  5 beta functions with:
                l(1) =   0
                l(2) =   0
                l(3) =   1
                l(4) =   1
                l(5) =   2
     Q(r) pseudized with  8 coefficients,  rinner =    0.900   0.900   0.900
                                                       0.900   0.900

     PseudoPot. # 2 for Bi read from file:
     /home/aldair1809/Programas/QE/q-e-qe-7.3/pseudo/bi_pbe_v1.uspp.F.UPF
     MD5 check sum: cceb9f28ec65b6d7ff33140f5b0b1758
     Pseudo is Ultrasoft + core correction, Zval = 15.0
     Generated by new atomic code, or converted to UPF format
     Using radial grid of  899 points,  6 beta functions with:
                l(1) =   0
                l(2) =   0
                l(3) =   1
                l(4) =   1
                l(5) =   2
                l(6) =   2
     Q(r) pseudized with  6 coefficients,  rinner =    1.000   1.000   1.000
                                                       1.000   1.000

     PseudoPot. # 3 for Fe read from file:
     /home/aldair1809/Programas/QE/q-e-qe-7.3/pseudo/fe_pbe_v1.5.uspp.F.UPF
     MD5 check sum: a130daea23fe5165f5d574ae7f82ed95
     Pseudo is Ultrasoft + core correction, Zval = 16.0
     Generated by new atomic code, or converted to UPF format
     Using radial grid of  861 points,  6 beta functions with:
                l(1) =   0
                l(2) =   0
                l(3) =   1
                l(4) =   1
                l(5) =   2
                l(6) =   2
     Q(r) pseudized with  8 coefficients,  rinner =    1.000   1.000   1.000
                                                       1.000   1.000

     PseudoPot. # 4 for Fe read from file:
     /home/aldair1809/Programas/QE/q-e-qe-7.3/pseudo/fe_pbe_v1.5.uspp.F.UPF
     MD5 check sum: a130daea23fe5165f5d574ae7f82ed95
     Pseudo is Ultrasoft + core correction, Zval = 16.0
     Generated by new atomic code, or converted to UPF format
     Using radial grid of  861 points,  6 beta functions with:
                l(1) =   0
                l(2) =   0
                l(3) =   1
                l(4) =   1
                l(5) =   2
                l(6) =   2
     Q(r) pseudized with  8 coefficients,  rinner =    1.000   1.000   1.000
                                                       1.000   1.000

     atomic species   valence    mass     pseudopotential
        O              6.00    15.99940     O ( 1.00)
        Bi            15.00   208.98040     Bi( 1.00)
        Fe1           16.00    55.84500     Fe( 1.00)
        Fe2           16.00    55.84500     Fe( 1.00)

     Starting magnetic structure
     atomic species   magnetization
        O            0.000
        Bi           0.000
        Fe1         -0.800
        Fe2          0.800

     Simplified LDA+U calculation (l_max = 2) with parameters (eV):
     atomic species    L          U    alpha       J0     beta
        Fe1            2     0.0000   0.0800   0.0000   0.0000
        Fe2            2     0.0000   0.0800   0.0000   0.0000

      3 Sym. Ops. (no inversion) found

                                    s                        frac. trans.

      isym =  1     identity

 cryst.   s( 1) = (     1          0          0      )
                  (     0          1          0      )
                  (     0          0          1      )

 cart.    s( 1) = (  1.0000000  0.0000000  0.0000000 )
                  (  0.0000000  1.0000000  0.0000000 )
                  (  0.0000000  0.0000000  1.0000000 )

      isym =  2     120 deg rotation - cryst. axis [0,0,1]

[...]

      isym =  3     120 deg rotation - cryst. axis [0,0,-1]

 cryst.   s( 3) = (    -1         -1          0      )
                  (     1          0          0      )
                  (     0          0          1      )

 cart.    s( 3) = ( -0.5000000  0.8660254  0.0000000 )
                  ( -0.8660254 -0.5000000  0.0000000 )
                  (  0.0000000  0.0000000  1.0000000 )

     point group C_3 (3)
     there are  3 classes
     the character table:

       E     C3    C3^2
A      1.00  1.00  1.00
E      1.00 -0.50 -0.50
E*     1.00 -0.50 -0.50
     imaginary part
A      0.00  0.00  0.00
E      0.00  0.87 -0.87
E*     0.00 -0.87  0.87

     the symmetry operations in each class and the name of the first element:

     E        1
          identity
     C3       2
          120 deg rotation - cryst. axis [0,0,1]
     C3^2     3
          120 deg rotation - cryst. axis [0,0,-1]

   Cartesian axes

     site n.     atom                  positions (alat units)
         1           Fe1 tau(   1) = (   0.0000000   0.0000000   1.9173194  )
         2           Fe1 tau(   2) = (  -0.0000005   0.5773506   2.3408318  )
         3           Fe1 tau(   3) = (   0.5000005   0.2886748   1.4987656  )
         4           Fe2 tau(   4) = (   0.5000005   0.2886748   0.2650306  )
         5           Fe2 tau(   5) = (   0.0000000   0.0000000   0.6836385  )
         6           Fe2 tau(   6) = (  -0.0000005   0.5773506   1.1071829  )
         7           Bi  tau(   7) = (   0.5000005   0.2886748   2.0704508  )
         8           Bi  tau(   8) = (  -0.0000005   0.5773506   1.6683657  )
         9           Bi  tau(   9) = (  -0.0000005   0.5773506   0.4345959  )
        10           Bi  tau(  10) = (   0.0000000   0.0000000   0.0112133  )
        11           Bi  tau(  11) = (   0.0000000   0.0000000   1.2449306  )
        12           Bi  tau(  12) = (   0.5000005   0.2886748   0.8366940  )
        13           O   tau(  13) = (  -0.3015234   0.6617768   2.1713309  )
        14           O   tau(  14) = (   0.0776467   0.2740092   2.1713309  )
        15           O   tau(  15) = (   0.2238783   0.7962639   2.1713309  )
        16           O   tau(  16) = (   0.4195843   0.5622547   1.7587968  )
        17           O   tau(  17) = (   0.3032805   0.0822442   1.7587968  )
        18           O   tau(  18) = (   0.7771337   0.2215274   1.7587968  )
        19           O   tau(  19) = (   0.6967279   0.0822438   0.5250654  )
        20           O   tau(  20) = (   0.5804103   0.5622631   0.5250654  )
        21           O   tau(  21) = (   0.2228602   0.2215194   0.5250654  )
        22           O   tau(  22) = (  -0.0757596   0.8510068   0.1130324  )
        23           O   tau(  23) = (  -0.1991137   0.3749123   0.1130324  )
        24           O   tau(  24) = (   0.2748733   0.5061317   0.1130324  )
        25           O   tau(  25) = (   0.1991050   0.3749017   1.3467955  )
        26           O   tau(  26) = (   0.0757731   0.8510045   1.3467955  )
        27           O   tau(  27) = (  -0.2748781   0.5061446   1.3467955  )
        28           O   tau(  28) = (  -0.0776631   0.2740052   0.9376559  )
        29           O   tau(  29) = (   0.3015366   0.6617637   0.9376559  )
        30           O   tau(  30) = (  -0.2238720   0.7962811   0.9376559  )

   Crystallographic axes

     site n.     atom                  positions (cryst. coord.)
         1           Fe1 tau(   1) = (  0.0000000  0.0000000  0.7770559  )
         2           Fe1 tau(   2) = (  0.3333330  0.6666670  0.9486980  )
         3           Fe1 tau(   3) = (  0.6666670  0.3333330  0.6074234  )
         4           Fe2 tau(   4) = (  0.6666670  0.3333330  0.1074122  )
         5           Fe2 tau(   5) = (  0.0000000  0.0000000  0.2770667  )
         6           Fe2 tau(   6) = (  0.3333330  0.6666670  0.4487218  )
         7           Bi  tau(   7) = (  0.6666670  0.3333330  0.8391174  )
         8           Bi  tau(   8) = (  0.3333330  0.6666670  0.6761593  )
         9           Bi  tau(   9) = (  0.3333330  0.6666670  0.1761341  )
        10           Bi  tau(  10) = (  0.0000000  0.0000000  0.0045446  )
        11           Bi  tau(  11) = (  0.0000000  0.0000000  0.5045485  )
        12           Bi  tau(  12) = (  0.6666670  0.3333330  0.3390974  )
        13           O   tau(  13) = (  0.0805536  0.7641541  0.8800023  )
        14           O   tau(  14) = (  0.2358459  0.3163985  0.8800023  )
        15           O   tau(  15) = (  0.6836015  0.9194464  0.8800023  )
        16           O   tau(  16) = (  0.7442022  0.6492358  0.7128095  )
        17           O   tau(  17) = (  0.3507642  0.0949674  0.7128095  )
        18           O   tau(  18) = (  0.9050326  0.2557978  0.7128095  )
        19           O   tau(  19) = (  0.7442114  0.0949669  0.2127998  )
        20           O   tau(  20) = (  0.9050331  0.6492455  0.2127998  )
        21           O   tau(  21) = (  0.3507545  0.2557886  0.2127998  )
        22           O   tau(  22) = (  0.4155694  0.9826580  0.0458101  )
        23           O   tau(  23) = (  0.0173420  0.4329115  0.0458101  )
        24           O   tau(  24) = (  0.5670885  0.5844306  0.0458101  )
        25           O   tau(  25) = (  0.4155546  0.4328992  0.5458326  )
        26           O   tau(  26) = (  0.5671008  0.9826554  0.5458326  )
        27           O   tau(  27) = (  0.0173446  0.5844454  0.5458326  )
        28           O   tau(  28) = (  0.0805338  0.3163939  0.3800155  )
        29           O   tau(  29) = (  0.6836061  0.7641389  0.3800155  )
[...]
  0.043  0.301  0.000  0.049  0.607
  0.301  0.043  0.000  0.607  0.049
  0.224  0.432  0.000  0.145  0.198
  0.432  0.224  0.000  0.198  0.145
    occupations:
  0.993 -0.000 -0.000 -0.000 -0.000
 -0.000  0.993 -0.000 -0.001 -0.002
 -0.000 -0.000  0.993 -0.002  0.001
 -0.000 -0.001 -0.002  0.992  0.000
 -0.000 -0.002  0.001  0.000  0.992
atomic mag. moment =  -3.82621
atom    2   Tr[ns(na)] (up, down, total) =   1.23809  4.91650  6.15459
   spin  1
    eigenvalues:
  0.176  0.189  0.189  0.341  0.341
    eigenvectors:
  1.000  0.000  0.000  0.000  0.000
  0.000  0.198  0.071  0.246  0.486
  0.000  0.071  0.198  0.486  0.246
  0.000  0.101  0.630  0.000  0.268
  0.000  0.630  0.101  0.268  0.000
    occupations:
  0.176 -0.000 -0.000 -0.000 -0.000
 -0.000  0.301 -0.000 -0.054  0.041
 -0.000 -0.000  0.301  0.041  0.054
 -0.000 -0.054  0.041  0.230  0.000
 -0.000  0.041  0.054  0.000  0.230
   spin  2
    eigenvalues:
  0.970  0.970  0.991  0.993  0.993
    eigenvectors:
  0.000  0.000  1.000  0.000  0.000
  0.481  0.171  0.000  0.298  0.050
  0.171  0.481  0.000  0.050  0.298
  0.004  0.344  0.000  0.044  0.608
  0.344  0.004  0.000  0.608  0.044
    occupations:
  0.991 -0.000 -0.000 -0.000 -0.000
 -0.000  0.978 -0.000  0.006 -0.008
 -0.000 -0.000  0.978 -0.008 -0.006
 -0.000  0.006 -0.008  0.985  0.000
 -0.000 -0.008 -0.006  0.000  0.985
atomic mag. moment =  -3.67841
atom    3   Tr[ns(na)] (up, down, total) =   1.25498  4.92145  6.17644
   spin  1
    eigenvalues:
  0.195  0.195  0.205  0.330  0.330
    eigenvectors:
  0.000  0.000  1.000  0.000  0.000
  0.364  0.231  0.000  0.301  0.103
  0.231  0.364  0.000  0.103  0.301
  0.024  0.380  0.000  0.086  0.509
  0.380  0.024  0.000  0.509  0.086
    occupations:
  0.205 -0.000 -0.000 -0.000 -0.000
 -0.000  0.250 -0.000 -0.053  0.040
 -0.000 -0.000  0.250  0.040  0.053
 -0.000 -0.053  0.040  0.276  0.000
 -0.000  0.040  0.053  0.000  0.276
   spin  2
    eigenvalues:
  0.974  0.974  0.990  0.991  0.991
    eigenvectors:
  0.000  0.000  1.000  0.000  0.000
  0.454  0.089  0.000  0.341  0.117
  0.089  0.454  0.000  0.117  0.341
  0.045  0.413  0.000  0.022  0.520
  0.413  0.045  0.000  0.520  0.022
    occupations:
  0.990 -0.000 -0.000 -0.000 -0.000
 -0.000  0.982 -0.000  0.006 -0.006
 -0.000 -0.000  0.982 -0.006 -0.006
 -0.000  0.006 -0.006  0.983  0.000
 -0.000 -0.006 -0.006  0.000  0.983
atomic mag. moment =  -3.66647
atom    4   Tr[ns(na)] (up, down, total) =   4.92148  1.25495  6.17643
   spin  1
    eigenvalues:
  0.974  0.974  0.990  0.991  0.991
    eigenvectors:
  0.000  0.000  1.000  0.000  0.000
  0.010  0.532  0.000  0.049  0.408
  0.532  0.010  0.000  0.408  0.049
  0.190  0.268  0.000  0.126  0.417
  0.268  0.190  0.000  0.417  0.126
    occupations:
  0.990 -0.000 -0.000 -0.000 -0.000
 -0.000  0.982 -0.000 -0.006 -0.006
 -0.000 -0.000  0.982 -0.006  0.006
 -0.000 -0.006 -0.006  0.983  0.000
 -0.000 -0.006  0.006  0.000  0.983
   spin  2
    eigenvalues:
  0.195  0.195  0.204  0.330  0.330
    eigenvectors:
  0.000  0.000  1.000  0.000  0.000
  0.000  0.595  0.000  0.002  0.403
  0.595  0.000  0.000  0.403  0.002
  0.159  0.245  0.000  0.183  0.413
  0.245  0.159  0.000  0.413  0.183
    occupations:
  0.204 -0.000 -0.000 -0.000 -0.000
 -0.000  0.250 -0.000  0.053  0.040
 -0.000 -0.000  0.250  0.040 -0.053
 -0.000  0.053  0.040  0.276  0.000
 -0.000  0.040 -0.053  0.000  0.276
atomic mag. moment =   3.66652
atom    5   Tr[ns(na)] (up, down, total) =   4.96283  1.13647  6.09930
   spin  1
    eigenvalues:
  0.990  0.990  0.993  0.994  0.994
    eigenvectors:
  0.000  0.000  1.000  0.000  0.000
  0.340  0.003  0.000  0.446  0.210
  0.003  0.340  0.000  0.210  0.446
  0.142  0.514  0.000  0.000  0.344
  0.514  0.142  0.000  0.344  0.000
    occupations:
  0.993 -0.000 -0.000 -0.000 -0.000
 -0.000  0.993 -0.000  0.001 -0.002
 -0.000 -0.000  0.993 -0.002 -0.001
 -0.000  0.001 -0.002  0.992  0.000
 -0.000 -0.002 -0.001  0.000  0.992
   spin  2
    eigenvalues:
  0.166  0.171  0.171  0.314  0.314
    eigenvectors:
  1.000  0.000  0.000  0.000  0.000
  0.000  0.367  0.022  0.584  0.028
  0.000  0.022  0.367  0.028  0.584
  0.000  0.059  0.552  0.043  0.345
  0.000  0.552  0.059  0.345  0.043
    occupations:
  0.166 -0.000 -0.000 -0.000 -0.000
 -0.000  0.259 -0.000 -0.037  0.059
 -0.000 -0.000  0.259  0.059  0.037
 -0.000 -0.037  0.059  0.227  0.000
 -0.000  0.059  0.037  0.000  0.227
atomic mag. moment =   3.82637
atom    6   Tr[ns(na)] (up, down, total) =   4.91652  1.23796  6.15448
   spin  1
    eigenvalues:
  0.970  0.970  0.991  0.993  0.993
    eigenvectors:
  0.000  0.000  1.000  0.000  0.000
  0.009  0.643  0.000  0.071  0.278
  0.643  0.009  0.000  0.278  0.071
  0.180  0.169  0.000  0.125  0.527
  0.169  0.180  0.000  0.527  0.125
    occupations:
  0.991 -0.000 -0.000 -0.000 -0.000
 -0.000  0.978 -0.000 -0.006 -0.008
 -0.000 -0.000  0.978 -0.008  0.006
 -0.000 -0.006 -0.008  0.985  0.000
 -0.000 -0.008  0.006  0.000  0.985
   spin  2
    eigenvalues:
  0.176  0.189  0.189  0.341  0.341
    eigenvectors:
  1.000  0.000  0.000  0.000  0.000
  0.000  0.005  0.263  0.004  0.728
  0.000  0.263  0.005  0.728  0.004
  0.000  0.173  0.559  0.118  0.151
  0.000  0.559  0.173  0.151  0.118
    occupations:
  0.176 -0.000 -0.000 -0.000 -0.000
 -0.000  0.301 -0.000  0.054  0.041
 -0.000 -0.000  0.301  0.041 -0.054
 -0.000  0.054  0.041  0.230  0.000
 -0.000  0.041 -0.054  0.000  0.230
atomic mag. moment =   3.67856
N of occupied +U levels =   36.860664
 --- exit write_ns ---

     negative rho (up, down):  1.235E-01 1.235E-01
 --- in v_hubbard ---
Hubbard energy    0.2167

     Magnetic moment per site:
     atom:    1    charge:   12.8807    magn:   -3.7033    constr:    0.0000
     atom:    2    charge:   12.8929    magn:   -3.5495    constr:    0.0000
     atom:    3    charge:   12.9092    magn:   -3.5321    constr:    0.0000
     atom:    4    charge:   12.9093    magn:    3.5322    constr:    0.0000
     atom:    5    charge:   12.8807    magn:    3.7034    constr:    0.0000
     atom:    6    charge:   12.8929    magn:    3.5496    constr:    0.0000
     atom:    7    charge:   10.6106    magn:   -0.0146    constr:    0.0000
     atom:    8    charge:   10.6098    magn:   -0.0117    constr:    0.0000
     atom:    9    charge:   10.6098    magn:    0.0117    constr:    0.0000
     atom:   10    charge:   10.6111    magn:   -0.0036    constr:    0.0000
     atom:   11    charge:   10.6111    magn:    0.0035    constr:    0.0000
     atom:   12    charge:   10.6107    magn:    0.0146    constr:    0.0000
     atom:   13    charge:    5.2923    magn:   -0.2025    constr:    0.0000
     atom:   14    charge:    5.2923    magn:   -0.2025    constr:    0.0000
     atom:   15    charge:    5.2923    magn:   -0.2025    constr:    0.0000
     atom:   16    charge:    5.2925    magn:   -0.2157    constr:    0.0000
     atom:   17    charge:    5.2925    magn:   -0.2157    constr:    0.0000
     atom:   18    charge:    5.2925    magn:   -0.2157    constr:    0.0000
     atom:   19    charge:    5.2925    magn:    0.2157    constr:    0.0000
     atom:   20    charge:    5.2925    magn:    0.2157    constr:    0.0000
     atom:   21    charge:    5.2925    magn:    0.2157    constr:    0.0000
     atom:   22    charge:    5.2933    magn:    0.0614    constr:    0.0000
     atom:   23    charge:    5.2933    magn:    0.0614    constr:    0.0000
     atom:   24    charge:    5.2933    magn:    0.0614    constr:    0.0000
     atom:   25    charge:    5.2933    magn:   -0.0614    constr:    0.0000
     atom:   26    charge:    5.2933    magn:   -0.0614    constr:    0.0000
     atom:   27    charge:    5.2933    magn:   -0.0614    constr:    0.0000
     atom:   28    charge:    5.2923    magn:    0.2025    constr:    0.0000
     atom:   29    charge:    5.2923    magn:    0.2025    constr:    0.0000
     atom:   30    charge:    5.2923    magn:    0.2025    constr:    0.0000

     End of self-consistent calculation

 ------ SPIN UP ------------

          k = 0.0000 0.0000 0.0000 (  8497 PWs)   bands (ev):

   -78.5560 -78.2615 -78.1403 -73.5414 -73.4631 -73.3704 -44.5729 -44.5190
   -44.5190 -44.2522 -44.2522 -44.2432 -44.2398 -44.0794 -44.0794 -39.6910
   -39.6468 -39.6468 -39.6038 -39.5738 -39.5738 -39.5461 -39.4740 -39.4740
   -10.7123 -10.7123 -10.6888 -10.6888 -10.6742 -10.6615 -10.6451 -10.6451
   -10.6297 -10.6297 -10.6224 -10.6224 -10.6014 -10.6014 -10.5761 -10.5658
   -10.5548 -10.5548 -10.5457 -10.5457 -10.5290 -10.5290 -10.5235 -10.5163
   -10.5163 -10.5123 -10.4914 -10.4914 -10.4802 -10.4802  -7.3815  -6.9921
    -6.8580  -6.0414  -5.9611  -5.5886  -5.5884  -5.4899  -5.4898  -5.4233
    -5.4233  -5.3998  -5.2984  -5.2983  -5.0992  -5.0992  -4.9434  -4.9433
     1.5845   1.7005   1.7310   2.4209   2.5446   3.3224   5.4185   5.4185
     5.4786   5.9526   5.9527   6.0196   6.0781   6.0781   6.2417   6.3139
     6.3140   6.5229   6.5534   6.5570   6.5570   6.7081   6.7082   6.8726
     6.8727   7.0009   7.1311   7.2658   7.2658   7.6535   7.6536   7.6749
     7.8282   8.1888   8.1888   8.4136   8.5227   8.5227   8.6969   8.6969
     8.9181   9.1034   9.1034   9.1554   9.2644   9.2644   9.3330   9.4424
     9.4425   9.4493   9.5621   9.5621   9.7214   9.7215  10.0271  10.0271
    10.0722  10.0723  10.0936  10.1375  10.1375  10.5018  10.5018  10.6430
    10.8498  10.9875  11.0616  11.0616  11.1563  11.1833  11.2947  11.8932
    11.8933  12.6435  12.6436  12.9555  12.9555  13.1297  13.2091  13.2205
    13.2206  13.2490  13.3915  13.3915  14.2529  14.2529  14.9979  14.9980
    15.5142  15.6340  15.6341  15.7275  15.7876  15.9158  17.1381  17.1382
    17.1630  17.1631  17.2628  17.2628  17.5433  17.6083  17.6786  17.6786
    17.7359  17.7359  18.1509  18.1509  19.5671  20.5873  21.1182  21.2479
    21.5327  21.5327  22.0559  22.1942  22.5675  22.5675  22.6504  22.6504
    22.7710  22.7710  23.9887  23.9887  24.0560  24.0561  24.1576  24.3837

     occupation numbers
     1.0000   1.0000   1.0000   1.0000   1.0000   1.0000   1.0000   1.0000
     1.0000   1.0000   1.0000   1.0000   1.0000   1.0000   1.0000   1.0000
     1.0000   1.0000   1.0000   1.0000   1.0000   1.0000   1.0000   1.0000
     1.0000   1.0000   1.0000   1.0000   1.0000   1.0000   1.0000   1.0000
     1.0000   1.0000   1.0000   1.0000   1.0000   1.0000   1.0000   1.0000
     1.0000   1.0000   1.0000   1.0000   1.0000   1.0000   1.0000   1.0000
     1.0000   1.0000   1.0000   1.0000   1.0000   1.0000   1.0000   1.0000
     1.0000   1.0000   1.0000   1.0000   1.0000   1.0000   1.0000   1.0000
     1.0000   1.0000   1.0000   1.0000   1.0000   1.0000   1.0000   1.0000
     1.0000   1.0000   1.0000   1.0000   1.0000   1.0000   1.0000   1.0000
     1.0000   1.0000   1.0000   1.0000   1.0000   1.0000   1.0000   1.0000
     1.0000   1.0000   1.0000   1.0000   1.0000   1.0000   1.0000   1.0000
     1.0000   1.0000   1.0000   1.0000   1.0000   1.0000   1.0000   1.0000
     1.0000   1.0000   1.0000   1.0000   1.0000   1.0000   1.0000   1.0000
     1.0000   1.0000   1.0000   1.0000   1.0000   1.0000   1.0000   1.0000
     1.0000   1.0000   1.0000   1.0000   1.0000   1.0000   1.0000   1.0000
     1.0000   1.0000   1.0000   1.0000   1.0000   1.0000   1.0000   1.0000
     1.0000   1.0000   1.0000   1.0000   1.0000   1.0000   1.0000   1.0000
     1.0000   1.0352   1.0352  -0.0280  -0.0280  -0.0026  -0.0002  -0.0001
    -0.0001  -0.0000  -0.0000  -0.0000  -0.0000  -0.0000  -0.0000  -0.0000
    -0.0000  -0.0000  -0.0000  -0.0000  -0.0000  -0.0000  -0.0000  -0.0000
    -0.0000  -0.0000  -0.0000  -0.0000  -0.0000  -0.0000  -0.0000  -0.0000
    -0.0000  -0.0000  -0.0000  -0.0000  -0.0000  -0.0000  -0.0000  -0.0000
    -0.0000  -0.0000  -0.0000  -0.0000  -0.0000  -0.0000  -0.0000  -0.0000
    -0.0000  -0.0000  -0.0000  -0.0000  -0.0000  -0.0000  -0.0000  -0.0000

[...]

 ------ SPIN DOWN ----------

[...]

          k = 0.0000-0.5774 0.0000 (  8560 PWs)   bands (ev):

   -78.5559 -78.2621 -78.1399 -73.5414 -73.4626 -73.3708 -44.5728 -44.5190
   -44.5189 -44.2528 -44.2527 -44.2427 -44.2403 -44.0791 -44.0790 -39.6909
   -39.6469 -39.6469 -39.6031 -39.5733 -39.5733 -39.5464 -39.4745 -39.4744
   -10.7086 -10.6895 -10.6764 -10.6716 -10.6669 -10.6604 -10.6432 -10.6275
   -10.6227 -10.6180 -10.6101 -10.6085 -10.6037 -10.6005 -10.5747 -10.5647
   -10.5597 -10.5549 -10.5481 -10.5468 -10.5447 -10.5367 -10.5325 -10.5207
   -10.5197 -10.5092 -10.5075 -10.4972 -10.4948 -10.4832  -6.6707  -6.6393
    -6.4760  -6.2723  -6.2257  -5.8832  -5.7991  -5.7393  -5.6223  -5.5543
    -5.4914  -5.4700  -5.3946  -5.3258  -5.2053  -5.1472  -5.0434  -4.9669
     1.5203   1.7744   1.8172   2.0714   2.1468   2.3196   5.5863   5.8661
     5.8891   6.0343   6.2129   6.2641   6.3398   6.3788   6.4042   6.5812
     6.6210   6.6854   6.8072   6.8533   7.0943   7.1222   7.1999   7.3143
     7.3591   7.4889   7.5758   7.6152   7.7549   7.8574   7.8793   7.9907
     8.0455   8.1923   8.2305   8.3487   8.3658   8.3863   8.5110   8.5753
     8.7317   8.8066   8.8948   9.0054   9.0478   9.1281   9.1623   9.2453
     9.2765   9.3764   9.4457   9.5389   9.6493   9.7488   9.8290   9.8541
     9.8781   9.9644   9.9955  10.1035  10.1756  10.2675  10.3077  10.5264
    10.7064  10.7863  11.0003  11.0809  11.1797  11.3613  11.5462  11.8443
    11.8755  11.9452  12.5680  12.9294  13.0553  13.1318  13.2100  13.2484
    13.3332  13.3750  13.5377  13.6527  14.2659  14.3049  14.5155  14.7928
    14.8414  15.2119  15.4021  15.6938  15.7629  15.8789  15.9603  16.0183
    16.1222  16.1673  16.2564  16.9867  17.1417  17.2664  17.3355  17.4070
    17.4868  17.5479  17.6312  17.7070  21.3508  21.5572  21.8520  22.2607
    22.4362  22.5361  22.9096  22.9739  23.0483  23.2004  23.3156  23.3472
    23.4266  23.4621  23.9388  23.9666  24.1547  24.1845  24.3226  24.4394

     occupation numbers
     1.0000   1.0000   1.0000   1.0000   1.0000   1.0000   1.0000   1.0000
     1.0000   1.0000   1.0000   1.0000   1.0000   1.0000   1.0000   1.0000
     1.0000   1.0000   1.0000   1.0000   1.0000   1.0000   1.0000   1.0000
     1.0000   1.0000   1.0000   1.0000   1.0000   1.0000   1.0000   1.0000
     1.0000   1.0000   1.0000   1.0000   1.0000   1.0000   1.0000   1.0000
     1.0000   1.0000   1.0000   1.0000   1.0000   1.0000   1.0000   1.0000
     1.0000   1.0000   1.0000   1.0000   1.0000   1.0000   1.0000   1.0000
     1.0000   1.0000   1.0000   1.0000   1.0000   1.0000   1.0000   1.0000
     1.0000   1.0000   1.0000   1.0000   1.0000   1.0000   1.0000   1.0000
     1.0000   1.0000   1.0000   1.0000   1.0000   1.0000   1.0000   1.0000
     1.0000   1.0000   1.0000   1.0000   1.0000   1.0000   1.0000   1.0000
     1.0000   1.0000   1.0000   1.0000   1.0000   1.0000   1.0000   1.0000
     1.0000   1.0000   1.0000   1.0000   1.0000   1.0000   1.0000   1.0000
     1.0000   1.0000   1.0000   1.0000   1.0000   1.0000   1.0000   1.0000
     1.0000   1.0000   1.0000   1.0000   1.0000   1.0000   1.0000   1.0000
     1.0000   1.0000   1.0000   1.0000   1.0000   1.0000   1.0000   1.0000
     1.0000   1.0000   1.0000   1.0000   1.0000   1.0000   1.0000   1.0000
     1.0000   1.0000   1.0000   1.0000   1.0000   1.0000   1.0000   1.0000
     1.0000   1.0000   1.0137   0.0009  -0.0159  -0.0024  -0.0002  -0.0000
    -0.0000  -0.0000  -0.0000  -0.0000  -0.0000  -0.0000  -0.0000  -0.0000
    -0.0000  -0.0000  -0.0000  -0.0000  -0.0000  -0.0000  -0.0000  -0.0000
    -0.0000  -0.0000  -0.0000  -0.0000  -0.0000  -0.0000  -0.0000  -0.0000
    -0.0000  -0.0000  -0.0000  -0.0000  -0.0000  -0.0000  -0.0000  -0.0000
    -0.0000  -0.0000  -0.0000  -0.0000  -0.0000  -0.0000  -0.0000  -0.0000
    -0.0000  -0.0000  -0.0000  -0.0000  -0.0000  -0.0000  -0.0000  -0.0000

     the Fermi energy is    12.8154 ev

!    total energy              =   -3194.82075228 Ry
     estimated scf accuracy    <       0.00000002 Ry
     smearing contrib. (-TS)   =       0.00266520 Ry
     internal energy E=F+TS    =   -3194.82341748 Ry

     The total energy is F=E-TS. E is the sum of the following terms:
     one-electron contribution =   -1266.96691348 Ry
     hartree contribution      =     826.05707360 Ry
     xc contribution           =    -695.64898612 Ry
     ewald contribution        =   -2058.48132819 Ry
     Hubbard energy            =       0.21673671 Ry

     total magnetization       =     0.00 Bohr mag/cell
     absolute magnetization    =    27.37 Bohr mag/cell

     convergence has been achieved in  13 iterations

     Writing output data file /home/aldair1809/Documentos/QE/4BFO/hubbard_pbe_mp/lr_0.08/bifeo3-Uhubbard.save/

     General routines

     Parallel routines

     Hubbard U routines

   This run was terminated on:   0: 6:16  27Oct2024

   JOB DONE.