     Program PWSCF v.6.7MaX starts on 26Oct2024 at 18: 6:14

     R & G space division:  proc/nbgrp/npool/nimage =       4
     Waiting for input...
     Reading input from standard input

     Current dimensions of program PWSCF are:
     Max number of different atomic species (ntypx) = 10
     Max number of k-points (npk) =  40000
     Max angular momentum in pseudopotentials (lmaxx) =  3

     bravais-lattice index     =            4
     lattice parameter (alat)  =      10.4531  a.u.
     unit-cell volume          =    2440.6662 (a.u.)^3
     number of atoms/cell      =           30
     number of atomic types    =            4
     number of electrons       =       294.00
     number of Kohn-Sham states=          200
     kinetic-energy cutoff     =      30.0000  Ry
     charge density cutoff     =     120.0000  Ry
     scf convergence threshold =      1.0E-07
     mixing beta               =       0.4000
     number of iterations used =            8  plain     mixing
     Exchange-correlation=  SLA  PW   PBX  PBC
                           (   1   4   3   4   0   0   0)

     celldm(1)=  10.453102  celldm(2)=   0.000000  celldm(3)=   2.467415
     celldm(4)=   0.000000  celldm(5)=   0.000000  celldm(6)=   0.000000

     crystal axes: (cart. coord. in units of alat)
               a(1) = (   1.000000   0.000000   0.000000 )
               a(2) = (  -0.500000   0.866025   0.000000 )
               a(3) = (   0.000000   0.000000   2.467415 )

     reciprocal axes: (cart. coord. in units 2 pi/alat)
               b(1) = (  1.000000  0.577350 -0.000000 )
               b(2) = (  0.000000  1.154701  0.000000 )
               b(3) = (  0.000000 -0.000000  0.405282 )

     PseudoPot. # 1 for O  read from file:
     /home/aldair1809/Programas/QE/q-e-qe-7.3/pseudo/o_pbe_v1.2.uspp.F.UPF
     MD5 check sum: 734c27235a0248c51dbae37a1fbe46ec
     Pseudo is Ultrasoft + core correction, Zval =  6.0
     Generated by new atomic code, or converted to UPF format
     Using radial grid of  737 points,  5 beta functions with:
                l(1) =   0
                l(2) =   0
                l(3) =   1
                l(4) =   1
                l(5) =   2
     Q(r) pseudized with  8 coefficients,  rinner =    0.900   0.900   0.900
                                                       0.900   0.900

     PseudoPot. # 2 for Bi read from file:
     /home/aldair1809/Programas/QE/q-e-qe-7.3/pseudo/bi_pbe_v1.uspp.F.UPF
     MD5 check sum: cceb9f28ec65b6d7ff33140f5b0b1758
     Pseudo is Ultrasoft + core correction, Zval = 15.0
     Generated by new atomic code, or converted to UPF format
     Using radial grid of  899 points,  6 beta functions with:
                l(1) =   0
                l(2) =   0
                l(3) =   1
                l(4) =   1
                l(5) =   2
                l(6) =   2
     Q(r) pseudized with  6 coefficients,  rinner =    1.000   1.000   1.000
                                                       1.000   1.000

     PseudoPot. # 3 for Fe read from file:
     /home/aldair1809/Programas/QE/q-e-qe-7.3/pseudo/fe_pbe_v1.5.uspp.F.UPF
     MD5 check sum: a130daea23fe5165f5d574ae7f82ed95
     Pseudo is Ultrasoft + core correction, Zval = 16.0
     Generated by new atomic code, or converted to UPF format
     Using radial grid of  861 points,  6 beta functions with:
                l(1) =   0
                l(2) =   0
                l(3) =   1
                l(4) =   1
                l(5) =   2
                l(6) =   2
     Q(r) pseudized with  8 coefficients,  rinner =    1.000   1.000   1.000
                                                       1.000   1.000

     PseudoPot. # 4 for Fe read from file:
     /home/aldair1809/Programas/QE/q-e-qe-7.3/pseudo/fe_pbe_v1.5.uspp.F.UPF
     MD5 check sum: a130daea23fe5165f5d574ae7f82ed95
     Pseudo is Ultrasoft + core correction, Zval = 16.0
     Generated by new atomic code, or converted to UPF format
     Using radial grid of  861 points,  6 beta functions with:
                l(1) =   0
                l(2) =   0
                l(3) =   1
                l(4) =   1
                l(5) =   2
                l(6) =   2
     Q(r) pseudized with  8 coefficients,  rinner =    1.000   1.000   1.000
                                                       1.000   1.000

     atomic species   valence    mass     pseudopotential
        O              6.00    15.99940     O ( 1.00)
        Bi            15.00   208.98040     Bi( 1.00)
        Fe1           16.00    55.84500     Fe( 1.00)
        Fe2           16.00    55.84500     Fe( 1.00)

     Starting magnetic structure
     atomic species   magnetization
        O            0.000
        Bi           0.000
        Fe1         -0.800
        Fe2          0.800

     Simplified LDA+U calculation (l_max = 2) with parameters (eV):
     atomic species    L          U    alpha       J0     beta
        Fe1            2     0.5000  -0.2000   0.0000   0.0000
        Fe2            2     0.5000  -0.2000   0.0000   0.0000

      3 Sym. Ops. (no inversion) found

                                    s                        frac. trans.

      isym =  1     identity

 cryst.   s( 1) = (     1          0          0      )
                  (     0          1          0      )
                  (     0          0          1      )

 cart.    s( 1) = (  1.0000000  0.0000000  0.0000000 )
                  (  0.0000000  1.0000000  0.0000000 )
                  (  0.0000000  0.0000000  1.0000000 )

      isym =  2     120 deg rotation - cryst. axis [0,0,1]

[...]

      isym =  3     120 deg rotation - cryst. axis [0,0,-1]

 cryst.   s( 3) = (    -1         -1          0      )
                  (     1          0          0      )
                  (     0          0          1      )

 cart.    s( 3) = ( -0.5000000  0.8660254  0.0000000 )
                  ( -0.8660254 -0.5000000  0.0000000 )
                  (  0.0000000  0.0000000  1.0000000 )

     point group C_3 (3)
     there are  3 classes
     the character table:

       E     C3    C3^2
A      1.00  1.00  1.00
E      1.00 -0.50 -0.50
E*     1.00 -0.50 -0.50
     imaginary part
A      0.00  0.00  0.00
E      0.00  0.87 -0.87
E*     0.00 -0.87  0.87

     the symmetry operations in each class and the name of the first element:

     E        1
          identity
     C3       2
          120 deg rotation - cryst. axis [0,0,1]
     C3^2     3
          120 deg rotation - cryst. axis [0,0,-1]

   Cartesian axes

     site n.     atom                  positions (alat units)
         1           Fe1 tau(   1) = (   0.0000000   0.0000000   1.9173194  )
         2           Fe1 tau(   2) = (  -0.0000005   0.5773506   2.3408318  )
         3           Fe1 tau(   3) = (   0.5000005   0.2886748   1.4987656  )
         4           Fe2 tau(   4) = (   0.5000005   0.2886748   0.2650306  )
         5           Fe2 tau(   5) = (   0.0000000   0.0000000   0.6836385  )
         6           Fe2 tau(   6) = (  -0.0000005   0.5773506   1.1071829  )
         7           Bi  tau(   7) = (   0.5000005   0.2886748   2.0704508  )
         8           Bi  tau(   8) = (  -0.0000005   0.5773506   1.6683657  )
         9           Bi  tau(   9) = (  -0.0000005   0.5773506   0.4345959  )
        10           Bi  tau(  10) = (   0.0000000   0.0000000   0.0112133  )
        11           Bi  tau(  11) = (   0.0000000   0.0000000   1.2449306  )
        12           Bi  tau(  12) = (   0.5000005   0.2886748   0.8366940  )
        13           O   tau(  13) = (  -0.3015234   0.6617768   2.1713309  )
        14           O   tau(  14) = (   0.0776467   0.2740092   2.1713309  )
        15           O   tau(  15) = (   0.2238783   0.7962639   2.1713309  )
        16           O   tau(  16) = (   0.4195843   0.5622547   1.7587968  )
        17           O   tau(  17) = (   0.3032805   0.0822442   1.7587968  )
        18           O   tau(  18) = (   0.7771337   0.2215274   1.7587968  )
        19           O   tau(  19) = (   0.6967279   0.0822438   0.5250654  )
        20           O   tau(  20) = (   0.5804103   0.5622631   0.5250654  )
        21           O   tau(  21) = (   0.2228602   0.2215194   0.5250654  )
        22           O   tau(  22) = (  -0.0757596   0.8510068   0.1130324  )
        23           O   tau(  23) = (  -0.1991137   0.3749123   0.1130324  )
        24           O   tau(  24) = (   0.2748733   0.5061317   0.1130324  )
        25           O   tau(  25) = (   0.1991050   0.3749017   1.3467955  )
        26           O   tau(  26) = (   0.0757731   0.8510045   1.3467955  )
        27           O   tau(  27) = (  -0.2748781   0.5061446   1.3467955  )
        28           O   tau(  28) = (  -0.0776631   0.2740052   0.9376559  )
        29           O   tau(  29) = (   0.3015366   0.6617637   0.9376559  )
        30           O   tau(  30) = (  -0.2238720   0.7962811   0.9376559  )

   Crystallographic axes

     site n.     atom                  positions (cryst. coord.)
         1           Fe1 tau(   1) = (  0.0000000  0.0000000  0.7770559  )
         2           Fe1 tau(   2) = (  0.3333330  0.6666670  0.9486980  )
         3           Fe1 tau(   3) = (  0.6666670  0.3333330  0.6074234  )
         4           Fe2 tau(   4) = (  0.6666670  0.3333330  0.1074122  )
         5           Fe2 tau(   5) = (  0.0000000  0.0000000  0.2770667  )
         6           Fe2 tau(   6) = (  0.3333330  0.6666670  0.4487218  )
         7           Bi  tau(   7) = (  0.6666670  0.3333330  0.8391174  )
         8           Bi  tau(   8) = (  0.3333330  0.6666670  0.6761593  )
         9           Bi  tau(   9) = (  0.3333330  0.6666670  0.1761341  )
        10           Bi  tau(  10) = (  0.0000000  0.0000000  0.0045446  )
        11           Bi  tau(  11) = (  0.0000000  0.0000000  0.5045485  )
        12           Bi  tau(  12) = (  0.6666670  0.3333330  0.3390974  )
        13           O   tau(  13) = (  0.0805536  0.7641541  0.8800023  )
        14           O   tau(  14) = (  0.2358459  0.3163985  0.8800023  )
        15           O   tau(  15) = (  0.6836015  0.9194464  0.8800023  )
        16           O   tau(  16) = (  0.7442022  0.6492358  0.7128095  )
        17           O   tau(  17) = (  0.3507642  0.0949674  0.7128095  )
        18           O   tau(  18) = (  0.9050326  0.2557978  0.7128095  )
        19           O   tau(  19) = (  0.7442114  0.0949669  0.2127998  )
        20           O   tau(  20) = (  0.9050331  0.6492455  0.2127998  )
        21           O   tau(  21) = (  0.3507545  0.2557886  0.2127998  )
        22           O   tau(  22) = (  0.4155694  0.9826580  0.0458101  )
        23           O   tau(  23) = (  0.0173420  0.4329115  0.0458101  )
        24           O   tau(  24) = (  0.5670885  0.5844306  0.0458101  )
        25           O   tau(  25) = (  0.4155546  0.4328992  0.5458326  )
        26           O   tau(  26) = (  0.5671008  0.9826554  0.5458326  )
        27           O   tau(  27) = (  0.0173446  0.5844454  0.5458326  )
        28           O   tau(  28) = (  0.0805338  0.3163939  0.3800155  )
        29           O   tau(  29) = (  0.6836061  0.7641389  0.3800155  )
[...]
  0.025  0.447  0.000  0.067  0.461
  0.447  0.025  0.000  0.461  0.067
  0.209  0.319  0.000  0.128  0.344
  0.319  0.209  0.000  0.344  0.128
    occupations:
  0.981 -0.000 -0.000 -0.000 -0.000
 -0.000  0.980 -0.000 -0.001 -0.002
 -0.000 -0.000  0.980 -0.002  0.001
 -0.000 -0.001 -0.002  0.979  0.000
 -0.000 -0.002  0.001  0.000  0.979
atomic mag. moment =  -3.75033
atom    2   Tr[ns(na)] (up, down, total) =   1.23602  4.86062  6.09664
   spin  1
    eigenvalues:
  0.172  0.186  0.186  0.346  0.346
    eigenvectors:
  1.000  0.000  0.000  0.000  0.000
  0.000  0.210  0.062  0.260  0.468
  0.000  0.062  0.210  0.468  0.260
  0.000  0.101  0.626  0.001  0.272
  0.000  0.626  0.101  0.272  0.001
    occupations:
  0.172 -0.000 -0.000 -0.000 -0.000
 -0.000  0.302 -0.000 -0.055  0.045
 -0.000 -0.000  0.302  0.045  0.055
 -0.000 -0.055  0.045  0.230  0.000
 -0.000  0.045  0.055  0.000  0.230
   spin  2
    eigenvalues:
  0.961  0.961  0.979  0.980  0.980
    eigenvectors:
  0.000  0.000  1.000  0.000  0.000
  0.425  0.246  0.000  0.278  0.052
  0.246  0.425  0.000  0.052  0.278
  0.000  0.329  0.000  0.049  0.621
  0.329  0.000  0.000  0.621  0.049
    occupations:
  0.979 -0.000 -0.000 -0.000 -0.000
 -0.000  0.967 -0.000  0.006 -0.007
 -0.000 -0.000  0.967 -0.007 -0.006
 -0.000  0.006 -0.007  0.974  0.000
 -0.000 -0.007 -0.006  0.000  0.974
atomic mag. moment =  -3.62459
atom    3   Tr[ns(na)] (up, down, total) =   1.25018  4.86628  6.11645
   spin  1
    eigenvalues:
  0.190  0.190  0.201  0.335  0.335
    eigenvectors:
  0.000  0.000  1.000  0.000  0.000
  0.371  0.210  0.000  0.320  0.099
  0.210  0.371  0.000  0.099  0.320
  0.025  0.394  0.000  0.082  0.499
  0.394  0.025  0.000  0.499  0.082
    occupations:
  0.201 -0.000 -0.000 -0.000 -0.000
 -0.000  0.251 -0.000 -0.056  0.045
 -0.000 -0.000  0.251  0.045  0.056
 -0.000 -0.056  0.045  0.274  0.000
 -0.000  0.045  0.056  0.000  0.274
   spin  2
    eigenvalues:
  0.965  0.965  0.978  0.979  0.979
    eigenvectors:
  0.000  0.000  1.000  0.000  0.000
  0.438  0.113  0.000  0.326  0.123
  0.113  0.438  0.000  0.123  0.326
  0.038  0.411  0.000  0.025  0.526
  0.411  0.038  0.000  0.526  0.025
    occupations:
  0.978 -0.000 -0.000 -0.000 -0.000
 -0.000  0.971 -0.000  0.005 -0.005
 -0.000 -0.000  0.971 -0.005 -0.005
 -0.000  0.005 -0.005  0.973  0.000
 -0.000 -0.005 -0.005  0.000  0.973
atomic mag. moment =  -3.61610
atom    4   Tr[ns(na)] (up, down, total) =   4.86630  1.25009  6.11639
   spin  1
    eigenvalues:
  0.965  0.965  0.978  0.979  0.979
    eigenvectors:
  0.000  0.000  1.000  0.000  0.000
  0.007  0.544  0.000  0.041  0.408
  0.544  0.007  0.000  0.408  0.041
  0.184  0.265  0.000  0.126  0.425
  0.265  0.184  0.000  0.425  0.126
    occupations:
  0.978 -0.000 -0.000 -0.000 -0.000
 -0.000  0.971 -0.000 -0.005 -0.005
 -0.000 -0.000  0.971 -0.005  0.005
 -0.000 -0.005 -0.005  0.973  0.000
 -0.000 -0.005  0.005  0.000  0.973
   spin  2
    eigenvalues:
  0.190  0.190  0.200  0.335  0.335
    eigenvectors:
  0.000  0.000  1.000  0.000  0.000
  0.000  0.580  0.000  0.003  0.417
  0.580  0.000  0.000  0.417  0.003
  0.164  0.256  0.000  0.184  0.396
  0.256  0.164  0.000  0.396  0.184
    occupations:
  0.200 -0.000 -0.000 -0.000 -0.000
 -0.000  0.251 -0.000  0.056  0.045
 -0.000 -0.000  0.251  0.045 -0.056
 -0.000  0.056  0.045  0.274  0.000
 -0.000  0.045 -0.056  0.000  0.274
atomic mag. moment =   3.61621
atom    5   Tr[ns(na)] (up, down, total) =   4.89893  1.14854  6.04747
   spin  1
    eigenvalues:
  0.978  0.978  0.981  0.982  0.982
    eigenvectors:
  0.000  0.000  1.000  0.000  0.000
  0.444  0.028  0.000  0.398  0.130
  0.028  0.444  0.000  0.130  0.398
  0.086  0.443  0.000  0.009  0.463
  0.443  0.086  0.000  0.463  0.009
    occupations:
  0.981 -0.000 -0.000 -0.000 -0.000
 -0.000  0.980 -0.000  0.001 -0.002
 -0.000 -0.000  0.980 -0.002 -0.001
 -0.000  0.001 -0.002  0.979  0.000
 -0.000 -0.002 -0.001  0.000  0.979
   spin  2
    eigenvalues:
  0.170  0.170  0.174  0.318  0.318
    eigenvectors:
  0.000  0.000  1.000  0.000  0.000
  0.371  0.021  0.000  0.584  0.024
  0.021  0.371  0.000  0.024  0.584
  0.059  0.549  0.000  0.046  0.345
  0.549  0.059  0.000  0.345  0.046
    occupations:
  0.174 -0.000 -0.000 -0.000 -0.000
 -0.000  0.260 -0.000 -0.038  0.061
 -0.000 -0.000  0.260  0.061  0.038
 -0.000 -0.038  0.061  0.228  0.000
 -0.000  0.061  0.038  0.000  0.228
atomic mag. moment =   3.75040
atom    6   Tr[ns(na)] (up, down, total) =   4.86063  1.23602  6.09665
   spin  1
    eigenvalues:
  0.961  0.961  0.979  0.980  0.980
    eigenvectors:
  0.000  0.000  1.000  0.000  0.000
  0.005  0.666  0.000  0.060  0.269
  0.666  0.005  0.000  0.269  0.060
  0.170  0.159  0.000  0.126  0.544
  0.159  0.170  0.000  0.544  0.126
    occupations:
  0.979 -0.000 -0.000 -0.000 -0.000
 -0.000  0.967 -0.000 -0.006 -0.007
 -0.000 -0.000  0.967 -0.007  0.006
 -0.000 -0.006 -0.007  0.974  0.000
 -0.000 -0.007  0.006  0.000  0.974
   spin  2
    eigenvalues:
  0.171  0.186  0.186  0.346  0.346
    eigenvectors:
  1.000  0.000  0.000  0.000  0.000
  0.000  0.008  0.264  0.002  0.725
  0.000  0.264  0.008  0.725  0.002
  0.000  0.176  0.552  0.124  0.148
  0.000  0.552  0.176  0.148  0.124
    occupations:
  0.171 -0.000 -0.000 -0.000 -0.000
 -0.000  0.302 -0.000  0.055  0.045
 -0.000 -0.000  0.302  0.045 -0.055
 -0.000  0.055  0.045  0.230  0.000
 -0.000  0.045 -0.055  0.000  0.230
atomic mag. moment =   3.62461
N of occupied +U levels =   36.521124
 --- exit write_ns ---

     negative rho (up, down):  1.216E-01 1.216E-01
 --- in v_hubbard ---
Hubbard energy   -0.4253

     Magnetic moment per site:
     atom:    1    charge:   12.8998    magn:   -3.6875    constr:    0.0000
     atom:    2    charge:   12.9105    magn:   -3.5550    constr:    0.0000
     atom:    3    charge:   12.9263    magn:   -3.5411    constr:    0.0000
     atom:    4    charge:   12.9263    magn:    3.5412    constr:    0.0000
     atom:    5    charge:   12.8998    magn:    3.6876    constr:    0.0000
     atom:    6    charge:   12.9106    magn:    3.5550    constr:    0.0000
     atom:    7    charge:   10.6094    magn:   -0.0144    constr:    0.0000
     atom:    8    charge:   10.6110    magn:   -0.0118    constr:    0.0000
     atom:    9    charge:   10.6110    magn:    0.0118    constr:    0.0000
     atom:   10    charge:   10.6091    magn:   -0.0037    constr:    0.0000
     atom:   11    charge:   10.6091    magn:    0.0037    constr:    0.0000
     atom:   12    charge:   10.6094    magn:    0.0144    constr:    0.0000
     atom:   13    charge:    5.2922    magn:   -0.2067    constr:    0.0000
     atom:   14    charge:    5.2922    magn:   -0.2067    constr:    0.0000
     atom:   15    charge:    5.2922    magn:   -0.2067    constr:    0.0000
     atom:   16    charge:    5.2917    magn:   -0.2193    constr:    0.0000
     atom:   17    charge:    5.2917    magn:   -0.2193    constr:    0.0000
     atom:   18    charge:    5.2917    magn:   -0.2193    constr:    0.0000
     atom:   19    charge:    5.2916    magn:    0.2193    constr:    0.0000
     atom:   20    charge:    5.2916    magn:    0.2193    constr:    0.0000
     atom:   21    charge:    5.2916    magn:    0.2193    constr:    0.0000
     atom:   22    charge:    5.2913    magn:    0.0633    constr:    0.0000
     atom:   23    charge:    5.2913    magn:    0.0633    constr:    0.0000
     atom:   24    charge:    5.2913    magn:    0.0633    constr:    0.0000
     atom:   25    charge:    5.2913    magn:   -0.0633    constr:    0.0000
     atom:   26    charge:    5.2913    magn:   -0.0633    constr:    0.0000
     atom:   27    charge:    5.2913    magn:   -0.0633    constr:    0.0000
     atom:   28    charge:    5.2921    magn:    0.2066    constr:    0.0000
     atom:   29    charge:    5.2921    magn:    0.2066    constr:    0.0000
     atom:   30    charge:    5.2921    magn:    0.2066    constr:    0.0000

     End of self-consistent calculation

 ------ SPIN UP ------------

          k = 0.0000 0.0000 0.0000 (  6723 PWs)   bands (ev):

   -78.4381 -78.1961 -78.0863 -73.4511 -73.3947 -73.3074 -44.4312 -44.3927
   -44.3927 -44.1739 -44.1720 -44.1720 -44.1610 -44.0107 -44.0107 -39.5861
   -39.5460 -39.5460 -39.5227 -39.4932 -39.4932 -39.4693 -39.3990 -39.3990
   -10.7289 -10.7289 -10.7054 -10.7054 -10.6908 -10.6777 -10.6614 -10.6614
   -10.6460 -10.6460 -10.6391 -10.6391 -10.6184 -10.6184 -10.5918 -10.5825
   -10.5727 -10.5727 -10.5636 -10.5636 -10.5427 -10.5427 -10.5364 -10.5301
   -10.5301 -10.5259 -10.5052 -10.5052 -10.4943 -10.4943  -7.4054  -7.0200
    -6.8791  -6.0701  -5.9901  -5.6397  -5.6395  -5.5404  -5.5403  -5.4704
    -5.4703  -5.4282  -5.3461  -5.3460  -5.1284  -5.1284  -4.9741  -4.9740
     1.5664   1.6819   1.7145   2.4052   2.5302   3.3064   5.3035   5.3035
     5.4895   5.8141   5.8142   5.9402   5.9402   5.9905   6.1655   6.1655
     6.2134   6.4223   6.4223   6.4285   6.4915   6.5912   6.5912   6.7941
     6.7942   6.9361   7.0806   7.1722   7.1722   7.4364   7.4365   7.5877
     7.7618   8.0736   8.0736   8.2112   8.3943   8.3943   8.5263   8.5263
     8.7585   8.9493   9.0099   9.0100   9.1247   9.1248   9.2912   9.3179
     9.3180   9.3938   9.4503   9.4504   9.6339   9.6339   9.9911   9.9911
    10.0373  10.0374  10.0629  10.1037  10.1038  10.4810  10.4811  10.6284
    10.8304  10.9226  10.9226  10.9737  11.1351  11.1563  11.2614  11.7506
    11.7506  12.5346  12.5347  12.9410  12.9410  13.1234  13.1868  13.1994
    13.1994  13.2354  13.3754  13.3754  14.1711  14.1711  14.9195  14.9195
    15.5031  15.5856  15.5856  15.7187  15.7790  15.9087  17.1247  17.1248
    17.1501  17.1501  17.2500  17.2501  17.5331  17.6015  17.6656  17.6656
    17.7239  17.7240  18.1418  18.1418  19.5908  20.5945  21.1389  21.2739
    21.5329  21.5329  22.0684  22.2075  22.5678  22.5679  22.6487  22.6487
    22.7707  22.7707  23.9878  23.9878  24.0544  24.0544  24.1707  24.4080

     occupation numbers
     1.0000   1.0000   1.0000   1.0000   1.0000   1.0000   1.0000   1.0000
     1.0000   1.0000   1.0000   1.0000   1.0000   1.0000   1.0000   1.0000
     1.0000   1.0000   1.0000   1.0000   1.0000   1.0000   1.0000   1.0000
     1.0000   1.0000   1.0000   1.0000   1.0000   1.0000   1.0000   1.0000
     1.0000   1.0000   1.0000   1.0000   1.0000   1.0000   1.0000   1.0000
     1.0000   1.0000   1.0000   1.0000   1.0000   1.0000   1.0000   1.0000
     1.0000   1.0000   1.0000   1.0000   1.0000   1.0000   1.0000   1.0000
     1.0000   1.0000   1.0000   1.0000   1.0000   1.0000   1.0000   1.0000
     1.0000   1.0000   1.0000   1.0000   1.0000   1.0000   1.0000   1.0000
     1.0000   1.0000   1.0000   1.0000   1.0000   1.0000   1.0000   1.0000
     1.0000   1.0000   1.0000   1.0000   1.0000   1.0000   1.0000   1.0000
     1.0000   1.0000   1.0000   1.0000   1.0000   1.0000   1.0000   1.0000
     1.0000   1.0000   1.0000   1.0000   1.0000   1.0000   1.0000   1.0000
     1.0000   1.0000   1.0000   1.0000   1.0000   1.0000   1.0000   1.0000
     1.0000   1.0000   1.0000   1.0000   1.0000   1.0000   1.0000   1.0000
     1.0000   1.0000   1.0000   1.0000   1.0000   1.0000   1.0000   1.0000
     1.0000   1.0000   1.0000   1.0000   1.0000   1.0000   1.0000   1.0000
     1.0000   1.0000   1.0000   1.0000   1.0000   1.0000   1.0000   1.0000
     1.0000   1.0071   1.0071  -0.0193  -0.0193  -0.0028  -0.0003  -0.0002
    -0.0002  -0.0000  -0.0000  -0.0000  -0.0000  -0.0000  -0.0000  -0.0000
    -0.0000  -0.0000  -0.0000  -0.0000  -0.0000  -0.0000  -0.0000  -0.0000
    -0.0000  -0.0000  -0.0000  -0.0000  -0.0000  -0.0000  -0.0000  -0.0000
    -0.0000  -0.0000  -0.0000  -0.0000  -0.0000  -0.0000  -0.0000  -0.0000
    -0.0000  -0.0000  -0.0000  -0.0000  -0.0000  -0.0000  -0.0000  -0.0000
    -0.0000  -0.0000  -0.0000  -0.0000  -0.0000  -0.0000  -0.0000  -0.0000

[...]

 ------ SPIN DOWN ----------

[...]

          k = 0.0000-0.5774 0.0000 (  6794 PWs)   bands (ev):

   -78.4384 -78.1967 -78.0863 -73.4513 -73.3946 -73.3078 -44.4325 -44.3951
   -44.3943 -44.1748 -44.1746 -44.1739 -44.1625 -44.0130 -44.0121 -39.5870
   -39.5482 -39.5474 -39.5234 -39.4952 -39.4944 -39.4705 -39.4015 -39.4007
   -10.7252 -10.7060 -10.6929 -10.6885 -10.6831 -10.6767 -10.6595 -10.6435
   -10.6389 -10.6343 -10.6271 -10.6251 -10.6213 -10.6176 -10.5902 -10.5806
   -10.5767 -10.5725 -10.5657 -10.5640 -10.5608 -10.5508 -10.5465 -10.5339
   -10.5329 -10.5224 -10.5208 -10.5104 -10.5083 -10.4968  -6.7030  -6.6701
    -6.5078  -6.3044  -6.2524  -5.9164  -5.8328  -5.7730  -5.6627  -5.5948
    -5.5389  -5.5157  -5.4401  -5.3818  -5.2364  -5.1805  -5.0745  -4.9999
     1.4936   1.7526   1.7957   2.0485   2.1250   2.3021   5.4712   5.7092
     5.7372   5.8252   6.0874   6.1269   6.2547   6.2932   6.3229   6.4926
     6.5170   6.5768   6.6606   6.7311   6.9633   7.0079   7.0532   7.1515
     7.2890   7.3639   7.4858   7.4947   7.6012   7.7177   7.7694   7.8830
     7.9547   8.0156   8.1426   8.2638   8.2794   8.3176   8.4477   8.5195
     8.6079   8.7021   8.8130   8.8761   8.9625   9.0145   9.0790   9.1495
     9.2239   9.2875   9.3690   9.4486   9.5954   9.7077   9.7626   9.8037
     9.8411   9.9058   9.9378  10.0563  10.1089  10.1647  10.2351  10.4720
    10.5832  10.7377  10.9562  11.0326  11.0829  11.2727  11.4698  11.7095
    11.7614  11.8207  12.4553  12.9092  13.0315  13.1251  13.1899  13.2269
    13.3067  13.3482  13.5139  13.6276  14.1960  14.2446  14.4640  14.7189
    14.7738  15.1757  15.3631  15.6731  15.7415  15.8629  15.9470  16.0032
    16.1076  16.1556  16.2392  16.9758  17.1294  17.2564  17.3254  17.3941
    17.4766  17.5375  17.6207  17.6976  21.3824  21.5775  21.8659  22.2691
    22.4481  22.5530  22.9254  22.9774  23.0577  23.1982  23.3143  23.3468
    23.4285  23.4624  23.9443  23.9692  24.1568  24.1846  24.3247  24.4396

     occupation numbers
     1.0000   1.0000   1.0000   1.0000   1.0000   1.0000   1.0000   1.0000
     1.0000   1.0000   1.0000   1.0000   1.0000   1.0000   1.0000   1.0000
     1.0000   1.0000   1.0000   1.0000   1.0000   1.0000   1.0000   1.0000
     1.0000   1.0000   1.0000   1.0000   1.0000   1.0000   1.0000   1.0000
     1.0000   1.0000   1.0000   1.0000   1.0000   1.0000   1.0000   1.0000
     1.0000   1.0000   1.0000   1.0000   1.0000   1.0000   1.0000   1.0000
     1.0000   1.0000   1.0000   1.0000   1.0000   1.0000   1.0000   1.0000
     1.0000   1.0000   1.0000   1.0000   1.0000   1.0000   1.0000   1.0000
     1.0000   1.0000   1.0000   1.0000   1.0000   1.0000   1.0000   1.0000
     1.0000   1.0000   1.0000   1.0000   1.0000   1.0000   1.0000   1.0000
     1.0000   1.0000   1.0000   1.0000   1.0000   1.0000   1.0000   1.0000
     1.0000   1.0000   1.0000   1.0000   1.0000   1.0000   1.0000   1.0000
     1.0000   1.0000   1.0000   1.0000   1.0000   1.0000   1.0000   1.0000
     1.0000   1.0000   1.0000   1.0000   1.0000   1.0000   1.0000   1.0000
     1.0000   1.0000   1.0000   1.0000   1.0000   1.0000   1.0000   1.0000
     1.0000   1.0000   1.0000   1.0000   1.0000   1.0000   1.0000   1.0000
     1.0000   1.0000   1.0000   1.0000   1.0000   1.0000   1.0000   1.0000
     1.0000   1.0000   1.0000   1.0000   1.0000   1.0000   1.0000   1.0000
     1.0000   1.0000   1.0007   0.0340  -0.0223  -0.0026  -0.0003  -0.0001
    -0.0000  -0.0000  -0.0000  -0.0000  -0.0000  -0.0000  -0.0000  -0.0000
    -0.0000  -0.0000  -0.0000  -0.0000  -0.0000  -0.0000  -0.0000  -0.0000
    -0.0000  -0.0000  -0.0000  -0.0000  -0.0000  -0.0000  -0.0000  -0.0000
    -0.0000  -0.0000  -0.0000  -0.0000  -0.0000  -0.0000  -0.0000  -0.0000
    -0.0000  -0.0000  -0.0000  -0.0000  -0.0000  -0.0000  -0.0000  -0.0000
    -0.0000  -0.0000  -0.0000  -0.0000  -0.0000  -0.0000  -0.0000  -0.0000

     the Fermi energy is    12.8115 ev

!    total energy              =   -3195.22328648 Ry
     estimated scf accuracy    <       0.00000003 Ry
     smearing contrib. (-TS)   =       0.00151337 Ry
     internal energy E=F+TS    =   -3195.22479985 Ry

     The total energy is F=E-TS. E is the sum of the following terms:
     one-electron contribution =   -1266.86392449 Ry
     hartree contribution      =     826.13800938 Ry
     xc contribution           =    -695.59221604 Ry
     ewald contribution        =   -2058.48132916 Ry
     Hubbard energy            =      -0.42533953 Ry

     total magnetization       =    -0.00 Bohr mag/cell
     absolute magnetization    =    27.40 Bohr mag/cell

     convergence has been achieved in  13 iterations

     Writing output data file /home/aldair1809/Documentos/QE/4BFO/hubbard_pbe_mp/lr_-0.2/bifeo3-Uhubbard.save/

     General routines

     Parallel routines

     Hubbard U routines

   This run was terminated on:  18:43: 7  26Oct2024

   JOB DONE.