     Program PWSCF v.6.7MaX starts on  6Dec2024 at 14:35:25

     R & G space division:  proc/nbgrp/npool/nimage =       4
     Waiting for input...
     Reading input from standard input

     Current dimensions of program PWSCF are:
     Max number of different atomic species (ntypx) = 10
     Max number of k-points (npk) =  40000
     Max angular momentum in pseudopotentials (lmaxx) =  3
     Message from routine iosys:
     wrong startingpot: use default (1)

     Found symmetry operation: I + ( -0.5000 -0.5000  0.0000)
     This is a supercell, fractional translations are disabled

     bravais-lattice index     =            1
     lattice parameter (alat)  =      14.9137  a.u.
     unit-cell volume          =    3317.0944 (a.u.)^3
     number of atoms/cell      =           40
     number of atomic types    =            4
     number of electrons       =       392.00
     number of Kohn-Sham states=          235
     kinetic-energy cutoff     =      35.0000  Ry
     charge density cutoff     =     280.0000  Ry
     scf convergence threshold =      1.0E-05
     mixing beta               =       0.4000
     number of iterations used =            8  plain     mixing
     Exchange-correlation= SLA  PW   PSX  PSC
                           (   1   4  10   8   0   0   0)

     celldm(1)=  14.913719  celldm(2)=   0.000000  celldm(3)=   0.000000
     celldm(4)=   0.000000  celldm(5)=   0.000000  celldm(6)=   0.000000

     crystal axes: (cart. coord. in units of alat)
               a(1) = (   1.000000   0.000000   0.000000 )
               a(2) = (   0.000000   1.000000   0.000000 )
               a(3) = (   0.000000   0.000000   1.000000 )

     reciprocal axes: (cart. coord. in units 2 pi/alat)
               b(1) = (  1.000000  0.000000  0.000000 )
               b(2) = (  0.000000  1.000000  0.000000 )
               b(3) = (  0.000000  0.000000  1.000000 )

     PseudoPot. # 1 for O  read from file:
     /home/aldair1809/Programas/QE/q-e-qe-7.3/pseudo/o_pbesol_v1.2.uspp.F.UPF
     MD5 check sum: 501638753501ef6325af9037351f7734
     Pseudo is Ultrasoft + core correction, Zval =  6.0
     Generated by new atomic code, or converted to UPF format
     Using radial grid of  737 points,  5 beta functions with:
                l(1) =   0
                l(2) =   0
                l(3) =   1
                l(4) =   1
                l(5) =   2
     Q(r) pseudized with  8 coefficients,  rinner =    0.900   0.900   0.900
                                                       0.900   0.900

     PseudoPot. # 2 for Bi read from file:
     /home/aldair1809/Programas/QE/q-e-qe-7.3/pseudo/bi_pbesol_v1.uspp.F.UPF
     MD5 check sum: 588b87649a5c12ad5a0392deab1dcc00
     Pseudo is Ultrasoft + core correction, Zval = 15.0
     Generated by new atomic code, or converted to UPF format
     Using radial grid of  899 points,  6 beta functions with:
                l(1) =   0
                l(2) =   0
                l(3) =   1
                l(4) =   1
                l(5) =   2
                l(6) =   2
     Q(r) pseudized with  6 coefficients,  rinner =    1.000   1.000   1.000
                                                       1.000   1.000

     PseudoPot. # 3 for Fe read from file:
     /home/aldair1809/Programas/QE/q-e-qe-7.3/pseudo/fe_pbesol_v1.5.uspp.F.UPF
     MD5 check sum: a3f38e9a1a818e424be8f97771a26c64
     Pseudo is Ultrasoft + core correction, Zval = 16.0
     Generated by new atomic code, or converted to UPF format
     Using radial grid of  861 points,  6 beta functions with:
                l(1) =   0
                l(2) =   0
                l(3) =   1
                l(4) =   1
                l(5) =   2
                l(6) =   2
     Q(r) pseudized with  8 coefficients,  rinner =    1.000   1.000   1.000
                                                       1.000   1.000

     PseudoPot. # 4 for Fe read from file:
     /home/aldair1809/Programas/QE/q-e-qe-7.3/pseudo/fe_pbesol_v1.5.uspp.F.UPF
     MD5 check sum: a3f38e9a1a818e424be8f97771a26c64
     Pseudo is Ultrasoft + core correction, Zval = 16.0
     Generated by new atomic code, or converted to UPF format
     Using radial grid of  861 points,  6 beta functions with:
                l(1) =   0
                l(2) =   0
                l(3) =   1
                l(4) =   1
                l(5) =   2
                l(6) =   2
     Q(r) pseudized with  8 coefficients,  rinner =    1.000   1.000   1.000
                                                       1.000   1.000

     atomic species   valence    mass     pseudopotential
        O              6.00    15.99940     O ( 1.00)
        Bi            15.00   208.98040     Bi( 1.00)
        Fe1           16.00    55.84500     Fe( 1.00)
        Fe2           16.00    55.84500     Fe( 1.00)

     Starting magnetic structure
     atomic species   magnetization
        O            0.000
        Bi           0.000
        Fe1         -0.800
        Fe2          0.800

     Simplified LDA+U calculation (l_max = 2) with parameters (eV):
     atomic species    L          U    alpha       J0     beta
        Fe1            2     4.1000   0.0000   0.0000   0.0000
        Fe2            2     4.1000   0.0000   0.0000   0.0000

      8 Sym. Ops., with inversion, found

                                    s                        frac. trans.

      isym =  1     identity

 cryst.   s( 1) = (     1          0          0      )
                  (     0          1          0      )
                  (     0          0          1      )

 cart.    s( 1) = (  1.0000000  0.0000000  0.0000000 )
                  (  0.0000000  1.0000000  0.0000000 )
                  (  0.0000000  0.0000000  1.0000000 )

      isym =  2     180 deg rotation - cart. axis [0,0,1]

[...]

      isym =  4     180 deg rotation - cart. axis [1,-1,0]

[...]

      isym =  5     inversion

[...]

      isym =  6     inv. 180 deg rotation - cart. axis [0,0,1]

[...]

      isym =  8     inv. 180 deg rotation - cart. axis [1,-1,0]

 cryst.   s( 8) = (     0          1          0      )
                  (     1          0          0      )
                  (     0          0          1      )

 cart.    s( 8) = (  0.0000000  1.0000000  0.0000000 )
                  (  1.0000000  0.0000000  0.0000000 )
                  (  0.0000000  0.0000000  1.0000000 )

     point group D_2h (mmm)
     there are  8 classes
     the character table:

       E     C2    C2'   C2''  i     s_v   s_v'  s_v''
A_g    1.00  1.00  1.00  1.00  1.00  1.00  1.00  1.00
B_1g   1.00  1.00 -1.00 -1.00  1.00  1.00 -1.00 -1.00
B_2g   1.00 -1.00  1.00 -1.00  1.00 -1.00  1.00 -1.00
B_3g   1.00 -1.00 -1.00  1.00  1.00 -1.00 -1.00  1.00
A_u    1.00  1.00  1.00  1.00 -1.00 -1.00 -1.00 -1.00
B_1u   1.00  1.00 -1.00 -1.00 -1.00 -1.00  1.00  1.00
B_2u   1.00 -1.00  1.00 -1.00 -1.00  1.00 -1.00  1.00
B_3u   1.00 -1.00 -1.00  1.00 -1.00  1.00  1.00 -1.00

     the symmetry operations in each class and the name of the first element:

     E        1
          identity
     C2       2
          180 deg rotation - cart. axis [0,0,1]
     C2'      4
          180 deg rotation - cart. axis [1,-1,0]
     C2''     3
          180 deg rotation - cart. axis [1,1,0]
     i        5
          inversion
     s_v      6
          inv. 180 deg rotation - cart. axis [0,0,1]
     s_v'     8
          inv. 180 deg rotation - cart. axis [1,-1,0]
     s_v''    7
          inv. 180 deg rotation - cart. axis [1,1,0]

   Cartesian axes

     site n.     atom                  positions (alat units)
         1           Bi  tau(   1) = (   0.0000000   0.0000000   0.0000000  )
         2           Bi  tau(   2) = (   0.5000000   0.5000000   0.0000000  )
         3           Bi  tau(   3) = (   0.5000000   0.0000000   0.0000000  )
         4           Bi  tau(   4) = (   0.0000000   0.5000000   0.5000000  )
         5           Bi  tau(   5) = (   0.0000000   0.0000000   0.5000000  )
         6           Bi  tau(   6) = (   0.5000000   0.5000000   0.5000000  )
         7           Bi  tau(   7) = (   0.5000000   0.0000000   0.5000000  )
         8           Bi  tau(   8) = (   0.0000000   0.5000000   0.0000000  )
         9           Fe2 tau(   9) = (   0.2500000   0.2500000   0.2500000  )
        10           Fe2 tau(  10) = (   0.7500000   0.7500000   0.2500000  )
        11           Fe1 tau(  11) = (   0.7500000   0.2500000   0.2500000  )
        12           Fe1 tau(  12) = (   0.2500000   0.7500000   0.7500000  )
        13           Fe2 tau(  13) = (   0.2500000   0.2500000   0.7500000  )
        14           Fe2 tau(  14) = (   0.7500000   0.7500000   0.7500000  )
        15           Fe1 tau(  15) = (   0.7500000   0.2500000   0.7500000  )
        16           Fe1 tau(  16) = (   0.2500000   0.7500000   0.2500000  )
        17           O   tau(  17) = (   0.2500000   0.2500000   0.0000000  )
        18           O   tau(  18) = (   0.2500000   0.0000000   0.2500000  )
        19           O   tau(  19) = (   0.0000000   0.2500000   0.2500000  )
        20           O   tau(  20) = (   0.7500000   0.7500000   0.0000000  )
        21           O   tau(  21) = (   0.7500000   0.2500000   0.0000000  )
        22           O   tau(  22) = (   0.2500000   0.7500000   0.5000000  )
        23           O   tau(  23) = (   0.2500000   0.2500000   0.5000000  )
        24           O   tau(  24) = (   0.7500000   0.7500000   0.5000000  )
        25           O   tau(  25) = (   0.7500000   0.2500000   0.5000000  )
        26           O   tau(  26) = (   0.2500000   0.7500000   0.0000000  )
        27           O   tau(  27) = (   0.7500000   0.5000000   0.2500000  )
        28           O   tau(  28) = (   0.7500000   0.0000000   0.2500000  )
        29           O   tau(  29) = (   0.2500000   0.5000000   0.7500000  )
        30           O   tau(  30) = (   0.2500000   0.0000000   0.7500000  )
        31           O   tau(  31) = (   0.7500000   0.5000000   0.7500000  )
        32           O   tau(  32) = (   0.7500000   0.0000000   0.7500000  )
        33           O   tau(  33) = (   0.2500000   0.5000000   0.2500000  )
        34           O   tau(  34) = (   0.5000000   0.7500000   0.2500000  )
        35           O   tau(  35) = (   0.5000000   0.2500000   0.2500000  )
        36           O   tau(  36) = (   0.0000000   0.7500000   0.7500000  )
        37           O   tau(  37) = (   0.0000000   0.2500000   0.7500000  )
        38           O   tau(  38) = (   0.5000000   0.7500000   0.7500000  )
        39           O   tau(  39) = (   0.5000000   0.2500000   0.7500000  )
        40           O   tau(  40) = (   0.0000000   0.7500000   0.2500000  )

   Crystallographic axes

     site n.     atom                  positions (cryst. coord.)
         1           Bi  tau(   1) = (  0.0000000  0.0000000  0.0000000  )
         2           Bi  tau(   2) = (  0.5000000  0.5000000  0.0000000  )
         3           Bi  tau(   3) = (  0.5000000  0.0000000  0.0000000  )
         4           Bi  tau(   4) = (  0.0000000  0.5000000  0.5000000  )
         5           Bi  tau(   5) = (  0.0000000  0.0000000  0.5000000  )
[...]
  0.325 -0.000 -0.000 -0.000 -0.000
 -0.000  0.108 -0.000  0.000  0.000
 -0.000 -0.000  0.108 -0.000  0.000
 -0.000  0.000 -0.000  0.390 -0.000
 -0.000  0.000  0.000 -0.000  0.106
atomic mag. moment =   3.92431
atom   14   Tr[ns(na)] (up, down, total) =   4.96101  1.03670  5.99772
   spin  1
    eigenvalues:
  0.988  0.988  0.995  0.995  0.995
    eigenvectors:
  1.000  0.000  0.000  0.000  0.000
  0.000  0.000  0.000  0.500  0.500
  0.000  0.000  0.000  0.500  0.500
  0.000  1.000  0.000  0.000  0.000
  0.000  0.000  1.000  0.000  0.000
    occupations:
  0.988  0.000  0.000 -0.000  0.000
  0.000  0.995  0.000 -0.000 -0.000
  0.000  0.000  0.995  0.000 -0.000
 -0.000 -0.000  0.000  0.988 -0.000
  0.000 -0.000 -0.000 -0.000  0.995
   spin  2
    eigenvalues:
  0.106  0.108  0.108  0.325  0.390
    eigenvectors:
  0.000  0.000  0.000  1.000  0.000
  0.000  0.500  0.500  0.000  0.000
  0.000  0.500  0.500  0.000  0.000
  0.000  0.000  0.000  0.000  1.000
  1.000  0.000  0.000  0.000  0.000
    occupations:
  0.325  0.000  0.000 -0.000 -0.000
  0.000  0.108 -0.000 -0.000 -0.000
  0.000 -0.000  0.108  0.000 -0.000
 -0.000 -0.000  0.000  0.390 -0.000
 -0.000 -0.000 -0.000 -0.000  0.106
atomic mag. moment =   3.92431
atom   15   Tr[ns(na)] (up, down, total) =   1.03673  4.96103  5.99777
   spin  1
    eigenvalues:
  0.106  0.108  0.108  0.325  0.390
    eigenvectors:
  0.000  0.000  0.000  1.000  0.000
  0.000  0.500  0.500  0.000  0.000
  0.000  0.500  0.500  0.000  0.000
  0.000  0.000  0.000  0.000  1.000
  1.000  0.000  0.000  0.000  0.000
    occupations:
  0.325  0.000 -0.000 -0.000 -0.000
  0.000  0.108  0.000 -0.000  0.000
 -0.000  0.000  0.108 -0.000 -0.000
 -0.000 -0.000 -0.000  0.390 -0.000
 -0.000  0.000 -0.000 -0.000  0.106
   spin  2
    eigenvalues:
  0.988  0.988  0.995  0.995  0.995
    eigenvectors:
  1.000  0.000  0.000  0.000  0.000
  0.000  0.000  0.000  0.500  0.500
  0.000  0.000  0.000  0.500  0.500
  0.000  1.000  0.000  0.000  0.000
  0.000  0.000  1.000  0.000  0.000
    occupations:
  0.988 -0.000  0.000 -0.000  0.000
 -0.000  0.995 -0.000  0.000 -0.000
  0.000 -0.000  0.995  0.000  0.000
 -0.000  0.000  0.000  0.988 -0.000
  0.000 -0.000  0.000 -0.000  0.995
atomic mag. moment =  -3.92430
atom   16   Tr[ns(na)] (up, down, total) =   1.03673  4.96103  5.99777
   spin  1
    eigenvalues:
  0.106  0.108  0.108  0.325  0.390
    eigenvectors:
  0.000  0.000  0.000  1.000  0.000
  0.000  0.500  0.500  0.000  0.000
  0.000  0.500  0.500  0.000  0.000
  0.000  0.000  0.000  0.000  1.000
  1.000  0.000  0.000  0.000  0.000
    occupations:
  0.325  0.000 -0.000 -0.000 -0.000
  0.000  0.108  0.000 -0.000  0.000
 -0.000  0.000  0.108 -0.000 -0.000
 -0.000 -0.000 -0.000  0.390 -0.000
 -0.000  0.000 -0.000 -0.000  0.106
   spin  2
    eigenvalues:
  0.988  0.988  0.995  0.995  0.995
    eigenvectors:
  1.000  0.000  0.000  0.000  0.000
  0.000  0.000  0.000  0.500  0.500
  0.000  0.000  0.000  0.500  0.500
  0.000  1.000  0.000  0.000  0.000
  0.000  0.000  1.000  0.000  0.000
    occupations:
  0.988 -0.000  0.000 -0.000  0.000
 -0.000  0.995 -0.000  0.000 -0.000
  0.000 -0.000  0.995  0.000  0.000
 -0.000  0.000  0.000  0.988 -0.000
  0.000 -0.000  0.000 -0.000  0.995
atomic mag. moment =  -3.92430
N of occupied +U levels =   47.981921
 --- exit write_ns ---

     negative rho (up, down):  1.646E-01 1.646E-01
 --- in v_hubbard ---
Hubbard energy    0.9441

     Magnetic moment per site:
     atom:    1    charge:   11.7767    magn:    0.0000    constr:    0.0000
     atom:    2    charge:   11.7767    magn:    0.0000    constr:    0.0000
     atom:    3    charge:   11.7767    magn:   -0.0000    constr:    0.0000
     atom:    4    charge:   11.7767    magn:    0.0000    constr:    0.0000
     atom:    5    charge:   11.7767    magn:    0.0000    constr:    0.0000
     atom:    6    charge:   11.7767    magn:    0.0000    constr:    0.0000
     atom:    7    charge:   11.7767    magn:    0.0000    constr:    0.0000
     atom:    8    charge:   11.7767    magn:   -0.0000    constr:    0.0000
     atom:    9    charge:   12.9690    magn:    3.8413    constr:    0.0000
     atom:   10    charge:   12.9690    magn:    3.8413    constr:    0.0000
     atom:   11    charge:   12.9691    magn:   -3.8413    constr:    0.0000
     atom:   12    charge:   12.9691    magn:   -3.8413    constr:    0.0000
     atom:   13    charge:   12.9690    magn:    3.8413    constr:    0.0000
     atom:   14    charge:   12.9690    magn:    3.8413    constr:    0.0000
     atom:   15    charge:   12.9691    magn:   -3.8413    constr:    0.0000
     atom:   16    charge:   12.9691    magn:   -3.8413    constr:    0.0000
     atom:   17    charge:    5.3621    magn:    0.1393    constr:    0.0000
     atom:   18    charge:    5.3585    magn:   -0.0000    constr:    0.0000
     atom:   19    charge:    5.3585    magn:   -0.0000    constr:    0.0000
     atom:   20    charge:    5.3621    magn:    0.1393    constr:    0.0000
     atom:   21    charge:    5.3624    magn:   -0.1392    constr:    0.0000
     atom:   22    charge:    5.3624    magn:   -0.1392    constr:    0.0000
     atom:   23    charge:    5.3621    magn:    0.1393    constr:    0.0000
     atom:   24    charge:    5.3621    magn:    0.1393    constr:    0.0000
     atom:   25    charge:    5.3624    magn:   -0.1392    constr:    0.0000
     atom:   26    charge:    5.3624    magn:   -0.1392    constr:    0.0000
     atom:   27    charge:    5.3584    magn:   -0.0000    constr:    0.0000
     atom:   28    charge:    5.3585    magn:   -0.0000    constr:    0.0000
     atom:   29    charge:    5.3584    magn:   -0.0000    constr:    0.0000
     atom:   30    charge:    5.3585    magn:   -0.0000    constr:    0.0000
     atom:   31    charge:    5.3584    magn:   -0.0000    constr:    0.0000
     atom:   32    charge:    5.3585    magn:   -0.0000    constr:    0.0000
     atom:   33    charge:    5.3584    magn:   -0.0000    constr:    0.0000
     atom:   34    charge:    5.3584    magn:   -0.0000    constr:    0.0000
     atom:   35    charge:    5.3584    magn:   -0.0000    constr:    0.0000
     atom:   36    charge:    5.3585    magn:   -0.0000    constr:    0.0000
     atom:   37    charge:    5.3585    magn:   -0.0000    constr:    0.0000
     atom:   38    charge:    5.3584    magn:   -0.0000    constr:    0.0000
     atom:   39    charge:    5.3584    magn:   -0.0000    constr:    0.0000
     atom:   40    charge:    5.3585    magn:   -0.0000    constr:    0.0000

     End of self-consistent calculation

 ------ SPIN UP ------------

          k = 0.0000 0.0000 0.0000 ( 11633 PWs)   bands (ev):

   -78.9102 -78.9102 -78.9101 -78.9101 -73.7351 -73.7351 -73.7350 -73.7350
   -45.0803 -45.0801 -45.0794 -45.0792 -44.9782 -44.9782 -44.9781 -44.9781
   -44.9780 -44.9780 -44.9779 -44.9779 -40.0042 -40.0041 -40.0025 -40.0023
   -39.9778 -39.9777 -39.9776 -39.9776 -39.9776 -39.9776 -39.9775 -39.9774
   -11.7562 -11.7524 -11.7476 -11.7469 -11.7441 -11.7440 -11.7440 -11.7427
   -11.7427 -11.7412 -11.7400 -11.7249 -11.7222 -11.7222 -11.7140 -11.7114
   -11.7114 -11.7100 -11.7098 -11.7098 -11.7096 -11.7090 -11.7087 -11.7087
   -11.7084 -11.7070 -11.7070 -11.7059 -11.7059 -11.6946 -11.6946 -11.6937
   -11.6932 -11.6918 -11.6908 -11.6847 -11.6847 -11.6839 -11.6821 -11.6804
    -7.0560  -6.3713  -6.2975  -6.2534  -5.7428  -5.6856  -5.6513  -5.6155
    -5.6155  -5.6100  -5.5564  -5.4283  -5.4283  -5.4283  -5.4283  -5.3652
    -5.2792  -5.2582  -5.2582  -5.2334  -5.2266  -5.2022  -5.0858  -5.0309
     0.6545   0.6545   0.6573   1.1296   1.1296   1.1310   1.7530   1.9345
     3.7773   3.8196   4.1593   4.1593   4.2698   4.3105   4.3793   4.7903
     4.7985   4.8543   4.8889   5.0044   5.0312   5.1184   5.1184   5.1203
     5.1203   5.2086   5.2086   5.2797   5.3846   5.9511   6.4085   6.4218
     6.4218   6.6937   6.6937   6.9315   7.1099   7.1312   7.4095   7.5753
     7.5753   7.5757   7.5757   7.6014   7.6098   7.6098   7.6173   7.6173
     7.6197   7.7357   8.1074   8.1731   8.2756   8.2756   8.2760   8.3652
     8.7779   8.7779   8.8104   8.8657   8.8657   9.0614   9.0614   9.3568
     9.3605   9.3605   9.4044   9.4044   9.4483   9.4679   9.7506   9.7595
     9.7595   9.9817   9.9817   9.9983  10.0588  10.0746  10.0888  10.0888
    10.1215  10.1756  10.1770  10.1770  10.1814  10.1814  10.2492  10.2510
    10.2570  10.3147  10.3409  10.3409  10.8940  10.9012  10.9012  10.9216
    10.9311  10.9311  11.6051  11.6917  12.0167  12.0929  12.2620  13.6172
    13.6198  13.6211  13.9097  13.9103  13.9179  13.9179  13.9286  13.9286
    14.1642  14.1742  14.3235  14.3236  14.4187  14.4373  14.5259  14.5883
    14.5883  14.6825  14.6861  14.6861  14.6935  14.6953  14.6953  15.1137
    15.1786  15.1786  15.1789  15.1866  15.1871  15.1885  16.0966  16.2215
    16.3829  16.3900  16.3900

     occupation numbers
     1.0000   1.0000   1.0000   1.0000   1.0000   1.0000   1.0000   1.0000
     1.0000   1.0000   1.0000   1.0000   1.0000   1.0000   1.0000   1.0000
     1.0000   1.0000   1.0000   1.0000   1.0000   1.0000   1.0000   1.0000
     1.0000   1.0000   1.0000   1.0000   1.0000   1.0000   1.0000   1.0000
     1.0000   1.0000   1.0000   1.0000   1.0000   1.0000   1.0000   1.0000
     1.0000   1.0000   1.0000   1.0000   1.0000   1.0000   1.0000   1.0000
     1.0000   1.0000   1.0000   1.0000   1.0000   1.0000   1.0000   1.0000
     1.0000   1.0000   1.0000   1.0000   1.0000   1.0000   1.0000   1.0000
     1.0000   1.0000   1.0000   1.0000   1.0000   1.0000   1.0000   1.0000
     1.0000   1.0000   1.0000   1.0000   1.0000   1.0000   1.0000   1.0000
     1.0000   1.0000   1.0000   1.0000   1.0000   1.0000   1.0000   1.0000
     1.0000   1.0000   1.0000   1.0000   1.0000   1.0000   1.0000   1.0000
     1.0000   1.0000   1.0000   1.0000   1.0000   1.0000   1.0000   1.0000
     1.0000   1.0000   1.0000   1.0000   1.0000   1.0000   1.0000   1.0000
     1.0000   1.0000   1.0000   1.0000   1.0000   1.0000   1.0000   1.0000
     1.0000   1.0000   1.0000   1.0000   1.0000   1.0000   1.0000   1.0000
     1.0000   1.0000   1.0000   1.0000   1.0000   1.0000   1.0000   1.0000
     1.0000   1.0000   1.0000   1.0000   1.0000   1.0000   1.0000   1.0000
     1.0000   1.0000   1.0000   1.0000   1.0000   1.0000   1.0000   1.0000
     1.0000   1.0000   1.0000   1.0000   1.0000   1.0000   1.0000   1.0000
     1.0000   1.0000   1.0000   1.0000   1.0000   1.0000   1.0000   1.0000
     1.0000   1.0000   1.0000   1.0000   1.0000   1.0000   1.0000   1.0000
     1.0000   1.0000   1.0000   1.0000   1.0000   1.0000   1.0000   1.0000
     1.0000   1.0000   1.0000   1.0000   1.0000   1.0000   1.0000   1.0000
     1.0000   1.0000   1.0000   1.0000   1.0137   1.0353   0.5145  -0.0000
    -0.0000  -0.0000  -0.0000  -0.0000  -0.0000  -0.0000  -0.0000  -0.0000
    -0.0000  -0.0000  -0.0000  -0.0000  -0.0000  -0.0000  -0.0000  -0.0000
    -0.0000  -0.0000  -0.0000  -0.0000  -0.0000  -0.0000  -0.0000  -0.0000
    -0.0000  -0.0000  -0.0000  -0.0000  -0.0000  -0.0000  -0.0000  -0.0000
    -0.0000  -0.0000  -0.0000

[...]

          k =-0.3333-0.3333 0.0000 ( 11590 PWs)   bands (ev):

[...]

 ------ SPIN DOWN ----------

[...]

          k =-0.3333-0.3333 0.0000 ( 11590 PWs)   bands (ev):

[...]

          k = 0.3333-0.3333 0.3333 ( 11626 PWs)   bands (ev):

   -78.9099 -78.9099 -78.9099 -78.9099 -73.7351 -73.7351 -73.7351 -73.7351
   -45.0798 -45.0798 -45.0794 -45.0793 -44.9778 -44.9778 -44.9778 -44.9778
   -44.9778 -44.9778 -44.9777 -44.9777 -40.0037 -40.0037 -40.0028 -40.0028
   -39.9777 -39.9777 -39.9777 -39.9777 -39.9777 -39.9777 -39.9777 -39.9776
   -11.7369 -11.7332 -11.7320 -11.7314 -11.7299 -11.7295 -11.7290 -11.7284
   -11.7274 -11.7270 -11.7252 -11.7208 -11.7189 -11.7184 -11.7167 -11.7149
   -11.7149 -11.7133 -11.7130 -11.7130 -11.7129 -11.7126 -11.7125 -11.7122
   -11.7122 -11.7104 -11.7101 -11.7101 -11.7099 -11.7034 -11.7028 -11.7022
   -11.7021 -11.7010 -11.7009 -11.7005 -11.7003 -11.6989 -11.6985 -11.6967
    -6.6552  -6.3808  -6.3208  -6.2635  -6.0599  -6.0219  -5.9767  -5.7555
    -5.4772  -5.4750  -5.4750  -5.4534  -5.4320  -5.3920  -5.3794  -5.3435
    -5.2644  -5.2276  -5.2249  -5.1909  -5.1567  -5.1564  -5.0539  -5.0452
     0.9482   0.9726   0.9959   1.0797   1.0889   1.1029   1.1425   1.3475
     4.2035   4.2228   4.4616   4.6048   4.6391   4.6436   4.6595   4.7521
     4.8005   4.8277   4.8695   4.9171   4.9202   4.9513   5.0236   5.0627
     5.0639   5.0758   5.1507   5.2006   5.7447   6.1444   6.3120   6.5261
     6.5412   6.7198   6.7845   6.8007   6.8626   6.9095   7.0167   7.0189
     7.1500   7.1685   7.2357   7.3188   7.4160   7.4276   7.4679   7.5519
     7.7529   7.7826   7.8041   7.9730   7.9924   8.1128   8.3229   8.4553
     8.5092   8.5624   8.6944   8.7740   8.8258   9.1789   9.2399   9.3117
     9.4644   9.4704   9.5131   9.5594   9.6561   9.6814   9.6831   9.7594
     9.8231   9.8441   9.8932   9.9270   9.9847  10.0071  10.0098  10.0121
    10.0311  10.0619  10.1215  10.1352  10.1559  10.1743  10.3464  10.3514
    10.4670  10.4875  10.5092  10.5904  10.7934  10.8529  11.2506  11.3409
    11.3419  11.3746  11.8289  11.8617  13.0234  13.0676  13.1097  13.2381
    13.2413  13.3372  13.5027  13.6790  13.9517  13.9964  14.1207  14.1443
    14.1580  14.1588  14.1687  14.2477  14.2745  14.3191  14.4956  14.6404
    14.7113  14.7179  14.8722  14.9402  14.9460  15.0390  15.0630  15.1370
    15.1846  15.2212  15.2671  15.2761  15.3104  15.5388  15.5406  15.6134
    15.6227  15.7466  15.7672

     occupation numbers
     1.0000   1.0000   1.0000   1.0000   1.0000   1.0000   1.0000   1.0000
     1.0000   1.0000   1.0000   1.0000   1.0000   1.0000   1.0000   1.0000
     1.0000   1.0000   1.0000   1.0000   1.0000   1.0000   1.0000   1.0000
     1.0000   1.0000   1.0000   1.0000   1.0000   1.0000   1.0000   1.0000
     1.0000   1.0000   1.0000   1.0000   1.0000   1.0000   1.0000   1.0000
     1.0000   1.0000   1.0000   1.0000   1.0000   1.0000   1.0000   1.0000
     1.0000   1.0000   1.0000   1.0000   1.0000   1.0000   1.0000   1.0000
     1.0000   1.0000   1.0000   1.0000   1.0000   1.0000   1.0000   1.0000
     1.0000   1.0000   1.0000   1.0000   1.0000   1.0000   1.0000   1.0000
     1.0000   1.0000   1.0000   1.0000   1.0000   1.0000   1.0000   1.0000
     1.0000   1.0000   1.0000   1.0000   1.0000   1.0000   1.0000   1.0000
     1.0000   1.0000   1.0000   1.0000   1.0000   1.0000   1.0000   1.0000
     1.0000   1.0000   1.0000   1.0000   1.0000   1.0000   1.0000   1.0000
     1.0000   1.0000   1.0000   1.0000   1.0000   1.0000   1.0000   1.0000
     1.0000   1.0000   1.0000   1.0000   1.0000   1.0000   1.0000   1.0000
     1.0000   1.0000   1.0000   1.0000   1.0000   1.0000   1.0000   1.0000
     1.0000   1.0000   1.0000   1.0000   1.0000   1.0000   1.0000   1.0000
     1.0000   1.0000   1.0000   1.0000   1.0000   1.0000   1.0000   1.0000
     1.0000   1.0000   1.0000   1.0000   1.0000   1.0000   1.0000   1.0000
     1.0000   1.0000   1.0000   1.0000   1.0000   1.0000   1.0000   1.0000
     1.0000   1.0000   1.0000   1.0000   1.0000   1.0000   1.0000   1.0000
     1.0000   1.0000   1.0000   1.0000   1.0000   1.0000   1.0000   1.0000
     1.0000   1.0000   1.0000   1.0000   1.0000   1.0000   1.0000   1.0000
     1.0000   1.0000   1.0000   1.0000   1.0000   1.0000   1.0000   1.0000
     1.0000   1.0000   1.0000   1.0001  -0.0000  -0.0000  -0.0000  -0.0000
    -0.0000  -0.0000  -0.0000  -0.0000  -0.0000  -0.0000  -0.0000  -0.0000
    -0.0000  -0.0000  -0.0000  -0.0000  -0.0000  -0.0000  -0.0000  -0.0000
    -0.0000  -0.0000  -0.0000  -0.0000  -0.0000  -0.0000  -0.0000  -0.0000
    -0.0000  -0.0000  -0.0000  -0.0000  -0.0000  -0.0000  -0.0000  -0.0000
    -0.0000  -0.0000  -0.0000

     the Fermi energy is    12.2643 ev

!    total energy              =   -4253.40612714 Ry
     estimated scf accuracy    <       0.00000075 Ry
     smearing contrib. (-TS)   =      -0.00042667 Ry
     internal energy E=F+TS    =   -4253.40570047 Ry

     The total energy is F=E-TS. E is the sum of the following terms:
     one-electron contribution =   -1692.50218523 Ry
     hartree contribution      =    1093.33725518 Ry
     xc contribution           =    -917.58113213 Ry
     ewald contribution        =   -2737.60377451 Ry
     Hubbard energy            =       0.94413622 Ry

     total magnetization       =    -0.00 Bohr mag/cell
     absolute magnetization    =    35.48 Bohr mag/cell

     convergence has been achieved in  14 iterations

     Writing output data file /home/aldair1809/Documentos/QE/4BFO/temp_cubic/scf/bifeo3.save/

     General routines

     Parallel routines

     Hubbard U routines

   This run was terminated on:  16:32:25   6Dec2024

   JOB DONE.